*SPEF "ieee 1481-1999"
*DESIGN "trc_top"
*DATE "17:47:58 Friday August 28, 2026"
*VENDOR "The OpenROAD Project"
*PROGRAM "OpenROAD"
*VERSION "26Q1-1024-gdcf36133a"
*DESIGN_FLOW "NAME_SCOPE LOCAL" "PIN_CAP NONE"
*DIVIDER /
*DELIMITER :
*BUS_DELIMITER []
*T_UNIT 1 NS
*C_UNIT 1 PF
*R_UNIT 1 OHM
*L_UNIT 1 HENRY

*NAME_MAP
*3 iCLK
*4 iRST
*5 iSPI_CS
*6 iSPI_MOSI
*7 iSPI_SCK
*8 net
*9 net23
*10 oINTERRUPT_IN
*11 net32
*12 oINTERRUPT_OUT
*13 net24
*14 net25
*15 net26
*16 net27
*17 net28
*18 oSPI_MISO_IN
*19 net33
*20 oSPI_MISO_OUT
*21 net29
*22 net30
*23 net31
*24 _000_
*25 _001_
*26 _002_
*27 _003_
*28 _004_
*29 _005_
*30 _006_
*31 _007_
*32 _008_
*33 _009_
*34 _010_
*35 _011_
*36 _012_
*37 _013_
*38 _014_
*39 _015_
*40 _016_
*41 _017_
*42 _018_
*43 _019_
*44 _020_
*45 _021_
*46 _022_
*47 _023_
*48 _024_
*49 _025_
*50 _026_
*51 _027_
*52 _028_
*53 _029_
*54 _030_
*55 _031_
*56 _032_
*57 _033_
*58 _034_
*59 _035_
*60 _036_
*61 _037_
*62 _038_
*63 _039_
*64 _040_
*65 _041_
*66 _042_
*67 _043_
*68 _044_
*69 _045_
*70 _046_
*71 _047_
*72 _048_
*73 _049_
*74 _050_
*75 _051_
*76 _052_
*77 _053_
*78 _054_
*79 _055_
*80 _056_
*81 _057_
*82 _058_
*83 _059_
*84 _060_
*85 _061_
*86 _062_
*87 _063_
*88 _064_
*89 _065_
*90 _066_
*91 _067_
*92 _068_
*93 _069_
*94 _070_
*95 _071_
*96 _072_
*97 _073_
*98 _074_
*99 _075_
*100 _076_
*101 _077_
*102 _078_
*103 _079_
*104 _080_
*105 _081_
*106 _082_
*107 _083_
*108 _084_
*109 _085_
*110 _086_
*111 _087_
*112 _088_
*113 _089_
*114 _090_
*115 _091_
*116 _092_
*117 _093_
*118 _094_
*119 _095_
*120 _096_
*121 _097_
*122 _098_
*123 _099_
*124 _100_
*125 _101_
*126 _102_
*127 _103_
*128 _104_
*129 _105_
*130 _106_
*131 _107_
*132 _108_
*133 _109_
*134 _110_
*135 _111_
*136 _112_
*137 _113_
*138 _114_
*139 _115_
*140 _116_
*141 _117_
*142 _118_
*143 _119_
*144 _120_
*145 _121_
*146 _122_
*147 _123_
*148 _124_
*149 _125_
*150 _126_
*151 _127_
*152 _128_
*153 _129_
*154 _130_
*155 _131_
*156 _132_
*157 _133_
*158 _134_
*159 _135_
*160 _136_
*161 _137_
*162 _138_
*163 _139_
*164 _140_
*165 _141_
*166 _142_
*167 _143_
*168 _144_
*169 _145_
*170 _146_
*171 _147_
*172 _148_
*173 _149_
*174 _150_
*175 _151_
*176 _152_
*177 _153_
*178 _154_
*179 _155_
*180 _156_
*181 _157_
*182 _158_
*183 _159_
*184 _160_
*185 _161_
*186 _162_
*187 _163_
*188 _164_
*189 _165_
*190 _166_
*191 _167_
*192 _168_
*193 _169_
*194 _170_
*195 _171_
*196 _172_
*197 _173_
*198 _174_
*199 _175_
*200 _176_
*201 _177_
*202 _178_
*203 _179_
*204 _180_
*205 _181_
*206 _182_
*207 _183_
*208 _184_
*209 _185_
*210 _186_
*211 _187_
*212 _188_
*213 _189_
*214 _190_
*215 _191_
*216 _192_
*217 _193_
*218 _194_
*219 _195_
*220 _196_
*221 _197_
*222 _198_
*223 _199_
*224 _200_
*225 _201_
*226 _202_
*227 _203_
*228 _204_
*229 _205_
*230 _206_
*231 _207_
*232 _208_
*233 _209_
*234 _210_
*235 _211_
*236 _212_
*237 _213_
*238 _214_
*239 _215_
*240 _216_
*241 _217_
*242 _218_
*243 _219_
*244 _220_
*245 _221_
*246 _222_
*247 _223_
*248 _224_
*249 _225_
*250 _226_
*251 _227_
*252 _228_
*253 _229_
*254 _230_
*255 _231_
*256 _232_
*257 _233_
*258 _234_
*259 _235_
*260 _236_
*261 _237_
*262 _238_
*263 _239_
*264 _240_
*265 _241_
*266 _242_
*267 _243_
*268 _244_
*269 _245_
*270 _246_
*271 _247_
*272 _248_
*273 _249_
*274 _250_
*275 _251_
*276 _252_
*277 _253_
*278 _254_
*279 _255_
*280 _256_
*281 _257_
*282 _258_
*283 _259_
*284 _260_
*285 _261_
*286 _262_
*287 _263_
*288 _264_
*289 _265_
*290 _266_
*291 _267_
*292 _268_
*293 _269_
*294 _270_
*295 _271_
*296 _272_
*297 _273_
*298 _274_
*299 _275_
*300 _276_
*301 _277_
*302 _278_
*303 _279_
*304 _280_
*305 _281_
*306 _282_
*307 _283_
*308 _284_
*309 _285_
*310 _286_
*311 _287_
*312 _288_
*313 _289_
*314 _290_
*315 _291_
*316 _292_
*317 _293_
*318 _294_
*319 _295_
*320 clknet_0_iCLK
*321 clknet_3_0__leaf_iCLK
*322 clknet_3_1__leaf_iCLK
*323 clknet_3_2__leaf_iCLK
*324 clknet_3_3__leaf_iCLK
*325 clknet_3_4__leaf_iCLK
*326 clknet_3_5__leaf_iCLK
*327 clknet_3_6__leaf_iCLK
*328 clknet_3_7__leaf_iCLK
*329 net1
*330 net10
*331 net11
*332 net12
*333 net13
*334 net14
*335 net15
*336 net16
*337 net17
*338 net18
*339 net19
*340 net2
*341 net20
*342 net21
*343 net22
*344 net3
*345 net34
*346 net35
*347 net36
*348 net37
*349 net38
*350 net39
*351 net4
*352 net40
*353 net41
*354 net42
*355 net43
*356 net44
*357 net45
*358 net46
*359 net47
*360 net48
*361 net49
*362 net5
*363 net6
*364 net7
*365 net8
*366 net9
*367 u_core\.active_trc_sel\[0\]
*368 u_core\.active_trc_sel\[1\]
*369 u_core\.adaptive_calibration\.active_trc_prev
*370 u_core\.adaptive_calibration\.adj_work\[0\]
*371 u_core\.adaptive_calibration\.adj_work\[1\]
*372 u_core\.adaptive_calibration\.adj_work\[2\]
*373 u_core\.adaptive_calibration\.adj_work\[3\]
*374 u_core\.adaptive_calibration\.baseline\[0\]
*375 u_core\.adaptive_calibration\.err_cnt\[0\]
*376 u_core\.adaptive_calibration\.err_cnt\[1\]
*377 u_core\.adaptive_calibration\.err_cnt\[2\]
*378 u_core\.adaptive_calibration\.err_cnt\[3\]
*379 u_core\.adaptive_calibration\.iCAL_PERIOD\[0\]
*380 u_core\.adaptive_calibration\.oAUTO_ADJ\[0\]
*381 u_core\.adaptive_calibration\.oAUTO_ADJ\[1\]
*382 u_core\.adaptive_calibration\.oAUTO_ADJ\[2\]
*383 u_core\.adaptive_calibration\.oAUTO_ADJ\[3\]
*384 u_core\.adaptive_calibration\.oAUTO_TRC_SEL\[0\]
*385 u_core\.adaptive_calibration\.oAUTO_TRC_SEL\[1\]
*386 u_core\.adaptive_calibration\.sel_work\[0\]
*387 u_core\.adaptive_calibration\.sel_work\[1\]
*388 u_core\.adaptive_calibration\.state\[0\]
*389 u_core\.adaptive_calibration\.state\[1\]
*390 u_core\.adaptive_calibration\.state\[2\]
*391 u_core\.adaptive_calibration\.state\[3\]
*392 u_core\.adaptive_calibration\.state\[4\]
*393 u_core\.adaptive_calibration\.state\[5\]
*394 u_core\.adaptive_calibration\.state\[6\]
*395 u_core\.adaptive_calibration\.tap0\[0\]
*396 u_core\.adaptive_calibration\.tap0\[1\]
*397 u_core\.adaptive_calibration\.tap0\[2\]
*398 u_core\.adaptive_calibration\.tap0\[3\]
*399 u_core\.adaptive_calibration\.tap1\[0\]
*400 u_core\.adaptive_calibration\.tap1\[1\]
*401 u_core\.adaptive_calibration\.tap1\[2\]
*402 u_core\.adaptive_calibration\.tap1\[3\]
*403 u_core\.adaptive_calibration\.tap2\[0\]
*404 u_core\.adaptive_calibration\.tap2\[1\]
*405 u_core\.adaptive_calibration\.tap2\[2\]
*406 u_core\.adaptive_calibration\.tap2\[3\]
*407 u_core\.adaptive_calibration\.tap3\[0\]
*408 u_core\.adaptive_calibration\.tap3\[1\]
*409 u_core\.adaptive_calibration\.tap3\[2\]
*410 u_core\.adaptive_calibration\.tap3\[3\]
*411 u_core\.adaptive_calibration\.window_cnt\[0\]
*412 u_core\.adaptive_calibration\.window_cnt\[1\]
*413 u_core\.adaptive_calibration\.window_cnt\[2\]
*414 u_core\.adaptive_calibration\.window_cnt\[3\]
*415 u_core\.adaptive_decision\.decision_logic\.attack_latched
*416 u_core\.adaptive_decision\.decision_logic\.iDEVIATION_DELTA\[0\]
*417 u_core\.adaptive_decision\.decision_logic\.iDEVIATION_DELTA\[2\]
*418 u_core\.adaptive_decision\.decision_logic\.iDEVIATION_DELTA\[3\]
*419 u_core\.adaptive_decision\.decision_logic\.iINT_EN
*420 u_core\.adaptive_decision\.decision_logic\.iTHRES_VAL\[0\]
*421 u_core\.adaptive_decision\.decision_logic\.iTHRES_VAL\[1\]
*422 u_core\.adaptive_decision\.decision_logic\.iTHRES_VAL\[2\]
*423 u_core\.adaptive_decision\.decision_logic\.iTHRES_VAL\[3\]
*424 u_core\.adaptive_decision\.failure_estimation\.attack_strength_raw\[0\]
*425 u_core\.adaptive_decision\.failure_estimation\.attack_strength_raw\[2\]
*426 u_core\.adaptive_decision\.failure_estimation\.attack_strength_raw\[3\]
*427 u_core\.auto_cal_en
*428 u_core\.delay_paths\.u_trc0\.capture_q
*429 u_core\.delay_paths\.u_trc0\.check_error
*430 u_core\.delay_paths\.u_trc0\.delay_wire\[0\]
*431 u_core\.delay_paths\.u_trc0\.delay_wire\[100\]
*432 u_core\.delay_paths\.u_trc0\.delay_wire\[101\]
*433 u_core\.delay_paths\.u_trc0\.delay_wire\[102\]
*434 u_core\.delay_paths\.u_trc0\.delay_wire\[103\]
*435 u_core\.delay_paths\.u_trc0\.delay_wire\[104\]
*436 u_core\.delay_paths\.u_trc0\.delay_wire\[105\]
*437 u_core\.delay_paths\.u_trc0\.delay_wire\[106\]
*438 u_core\.delay_paths\.u_trc0\.delay_wire\[107\]
*439 u_core\.delay_paths\.u_trc0\.delay_wire\[108\]
*440 u_core\.delay_paths\.u_trc0\.delay_wire\[109\]
*441 u_core\.delay_paths\.u_trc0\.delay_wire\[10\]
*442 u_core\.delay_paths\.u_trc0\.delay_wire\[110\]
*443 u_core\.delay_paths\.u_trc0\.delay_wire\[111\]
*444 u_core\.delay_paths\.u_trc0\.delay_wire\[112\]
*445 u_core\.delay_paths\.u_trc0\.delay_wire\[113\]
*446 u_core\.delay_paths\.u_trc0\.delay_wire\[114\]
*447 u_core\.delay_paths\.u_trc0\.delay_wire\[115\]
*448 u_core\.delay_paths\.u_trc0\.delay_wire\[116\]
*449 u_core\.delay_paths\.u_trc0\.delay_wire\[117\]
*450 u_core\.delay_paths\.u_trc0\.delay_wire\[118\]
*451 u_core\.delay_paths\.u_trc0\.delay_wire\[119\]
*452 u_core\.delay_paths\.u_trc0\.delay_wire\[11\]
*453 u_core\.delay_paths\.u_trc0\.delay_wire\[120\]
*454 u_core\.delay_paths\.u_trc0\.delay_wire\[121\]
*455 u_core\.delay_paths\.u_trc0\.delay_wire\[122\]
*456 u_core\.delay_paths\.u_trc0\.delay_wire\[123\]
*457 u_core\.delay_paths\.u_trc0\.delay_wire\[124\]
*458 u_core\.delay_paths\.u_trc0\.delay_wire\[125\]
*459 u_core\.delay_paths\.u_trc0\.delay_wire\[126\]
*460 u_core\.delay_paths\.u_trc0\.delay_wire\[127\]
*461 u_core\.delay_paths\.u_trc0\.delay_wire\[128\]
*462 u_core\.delay_paths\.u_trc0\.delay_wire\[129\]
*463 u_core\.delay_paths\.u_trc0\.delay_wire\[12\]
*464 u_core\.delay_paths\.u_trc0\.delay_wire\[130\]
*465 u_core\.delay_paths\.u_trc0\.delay_wire\[131\]
*466 u_core\.delay_paths\.u_trc0\.delay_wire\[132\]
*467 u_core\.delay_paths\.u_trc0\.delay_wire\[133\]
*468 u_core\.delay_paths\.u_trc0\.delay_wire\[134\]
*469 u_core\.delay_paths\.u_trc0\.delay_wire\[135\]
*470 u_core\.delay_paths\.u_trc0\.delay_wire\[136\]
*471 u_core\.delay_paths\.u_trc0\.delay_wire\[137\]
*472 u_core\.delay_paths\.u_trc0\.delay_wire\[138\]
*473 u_core\.delay_paths\.u_trc0\.delay_wire\[139\]
*474 u_core\.delay_paths\.u_trc0\.delay_wire\[13\]
*475 u_core\.delay_paths\.u_trc0\.delay_wire\[140\]
*476 u_core\.delay_paths\.u_trc0\.delay_wire\[141\]
*477 u_core\.delay_paths\.u_trc0\.delay_wire\[142\]
*478 u_core\.delay_paths\.u_trc0\.delay_wire\[143\]
*479 u_core\.delay_paths\.u_trc0\.delay_wire\[144\]
*480 u_core\.delay_paths\.u_trc0\.delay_wire\[145\]
*481 u_core\.delay_paths\.u_trc0\.delay_wire\[146\]
*482 u_core\.delay_paths\.u_trc0\.delay_wire\[147\]
*483 u_core\.delay_paths\.u_trc0\.delay_wire\[148\]
*484 u_core\.delay_paths\.u_trc0\.delay_wire\[149\]
*485 u_core\.delay_paths\.u_trc0\.delay_wire\[14\]
*486 u_core\.delay_paths\.u_trc0\.delay_wire\[150\]
*487 u_core\.delay_paths\.u_trc0\.delay_wire\[151\]
*488 u_core\.delay_paths\.u_trc0\.delay_wire\[152\]
*489 u_core\.delay_paths\.u_trc0\.delay_wire\[153\]
*490 u_core\.delay_paths\.u_trc0\.delay_wire\[154\]
*491 u_core\.delay_paths\.u_trc0\.delay_wire\[155\]
*492 u_core\.delay_paths\.u_trc0\.delay_wire\[156\]
*493 u_core\.delay_paths\.u_trc0\.delay_wire\[157\]
*494 u_core\.delay_paths\.u_trc0\.delay_wire\[158\]
*495 u_core\.delay_paths\.u_trc0\.delay_wire\[159\]
*496 u_core\.delay_paths\.u_trc0\.delay_wire\[15\]
*497 u_core\.delay_paths\.u_trc0\.delay_wire\[160\]
*498 u_core\.delay_paths\.u_trc0\.delay_wire\[161\]
*499 u_core\.delay_paths\.u_trc0\.delay_wire\[162\]
*500 u_core\.delay_paths\.u_trc0\.delay_wire\[163\]
*501 u_core\.delay_paths\.u_trc0\.delay_wire\[164\]
*502 u_core\.delay_paths\.u_trc0\.delay_wire\[165\]
*503 u_core\.delay_paths\.u_trc0\.delay_wire\[166\]
*504 u_core\.delay_paths\.u_trc0\.delay_wire\[167\]
*505 u_core\.delay_paths\.u_trc0\.delay_wire\[168\]
*506 u_core\.delay_paths\.u_trc0\.delay_wire\[169\]
*507 u_core\.delay_paths\.u_trc0\.delay_wire\[16\]
*508 u_core\.delay_paths\.u_trc0\.delay_wire\[170\]
*509 u_core\.delay_paths\.u_trc0\.delay_wire\[171\]
*510 u_core\.delay_paths\.u_trc0\.delay_wire\[172\]
*511 u_core\.delay_paths\.u_trc0\.delay_wire\[173\]
*512 u_core\.delay_paths\.u_trc0\.delay_wire\[174\]
*513 u_core\.delay_paths\.u_trc0\.delay_wire\[175\]
*514 u_core\.delay_paths\.u_trc0\.delay_wire\[176\]
*515 u_core\.delay_paths\.u_trc0\.delay_wire\[177\]
*516 u_core\.delay_paths\.u_trc0\.delay_wire\[178\]
*517 u_core\.delay_paths\.u_trc0\.delay_wire\[179\]
*518 u_core\.delay_paths\.u_trc0\.delay_wire\[17\]
*519 u_core\.delay_paths\.u_trc0\.delay_wire\[180\]
*520 u_core\.delay_paths\.u_trc0\.delay_wire\[181\]
*521 u_core\.delay_paths\.u_trc0\.delay_wire\[182\]
*522 u_core\.delay_paths\.u_trc0\.delay_wire\[183\]
*523 u_core\.delay_paths\.u_trc0\.delay_wire\[184\]
*524 u_core\.delay_paths\.u_trc0\.delay_wire\[185\]
*525 u_core\.delay_paths\.u_trc0\.delay_wire\[186\]
*526 u_core\.delay_paths\.u_trc0\.delay_wire\[187\]
*527 u_core\.delay_paths\.u_trc0\.delay_wire\[188\]
*528 u_core\.delay_paths\.u_trc0\.delay_wire\[189\]
*529 u_core\.delay_paths\.u_trc0\.delay_wire\[18\]
*530 u_core\.delay_paths\.u_trc0\.delay_wire\[190\]
*531 u_core\.delay_paths\.u_trc0\.delay_wire\[191\]
*532 u_core\.delay_paths\.u_trc0\.delay_wire\[192\]
*533 u_core\.delay_paths\.u_trc0\.delay_wire\[19\]
*534 u_core\.delay_paths\.u_trc0\.delay_wire\[1\]
*535 u_core\.delay_paths\.u_trc0\.delay_wire\[20\]
*536 u_core\.delay_paths\.u_trc0\.delay_wire\[21\]
*537 u_core\.delay_paths\.u_trc0\.delay_wire\[22\]
*538 u_core\.delay_paths\.u_trc0\.delay_wire\[23\]
*539 u_core\.delay_paths\.u_trc0\.delay_wire\[24\]
*540 u_core\.delay_paths\.u_trc0\.delay_wire\[25\]
*541 u_core\.delay_paths\.u_trc0\.delay_wire\[26\]
*542 u_core\.delay_paths\.u_trc0\.delay_wire\[27\]
*543 u_core\.delay_paths\.u_trc0\.delay_wire\[28\]
*544 u_core\.delay_paths\.u_trc0\.delay_wire\[29\]
*545 u_core\.delay_paths\.u_trc0\.delay_wire\[2\]
*546 u_core\.delay_paths\.u_trc0\.delay_wire\[30\]
*547 u_core\.delay_paths\.u_trc0\.delay_wire\[31\]
*548 u_core\.delay_paths\.u_trc0\.delay_wire\[32\]
*549 u_core\.delay_paths\.u_trc0\.delay_wire\[33\]
*550 u_core\.delay_paths\.u_trc0\.delay_wire\[34\]
*551 u_core\.delay_paths\.u_trc0\.delay_wire\[35\]
*552 u_core\.delay_paths\.u_trc0\.delay_wire\[36\]
*553 u_core\.delay_paths\.u_trc0\.delay_wire\[37\]
*554 u_core\.delay_paths\.u_trc0\.delay_wire\[38\]
*555 u_core\.delay_paths\.u_trc0\.delay_wire\[39\]
*556 u_core\.delay_paths\.u_trc0\.delay_wire\[3\]
*557 u_core\.delay_paths\.u_trc0\.delay_wire\[40\]
*558 u_core\.delay_paths\.u_trc0\.delay_wire\[41\]
*559 u_core\.delay_paths\.u_trc0\.delay_wire\[42\]
*560 u_core\.delay_paths\.u_trc0\.delay_wire\[43\]
*561 u_core\.delay_paths\.u_trc0\.delay_wire\[44\]
*562 u_core\.delay_paths\.u_trc0\.delay_wire\[45\]
*563 u_core\.delay_paths\.u_trc0\.delay_wire\[46\]
*564 u_core\.delay_paths\.u_trc0\.delay_wire\[47\]
*565 u_core\.delay_paths\.u_trc0\.delay_wire\[48\]
*566 u_core\.delay_paths\.u_trc0\.delay_wire\[49\]
*567 u_core\.delay_paths\.u_trc0\.delay_wire\[4\]
*568 u_core\.delay_paths\.u_trc0\.delay_wire\[50\]
*569 u_core\.delay_paths\.u_trc0\.delay_wire\[51\]
*570 u_core\.delay_paths\.u_trc0\.delay_wire\[52\]
*571 u_core\.delay_paths\.u_trc0\.delay_wire\[53\]
*572 u_core\.delay_paths\.u_trc0\.delay_wire\[54\]
*573 u_core\.delay_paths\.u_trc0\.delay_wire\[55\]
*574 u_core\.delay_paths\.u_trc0\.delay_wire\[56\]
*575 u_core\.delay_paths\.u_trc0\.delay_wire\[57\]
*576 u_core\.delay_paths\.u_trc0\.delay_wire\[58\]
*577 u_core\.delay_paths\.u_trc0\.delay_wire\[59\]
*578 u_core\.delay_paths\.u_trc0\.delay_wire\[5\]
*579 u_core\.delay_paths\.u_trc0\.delay_wire\[60\]
*580 u_core\.delay_paths\.u_trc0\.delay_wire\[61\]
*581 u_core\.delay_paths\.u_trc0\.delay_wire\[62\]
*582 u_core\.delay_paths\.u_trc0\.delay_wire\[63\]
*583 u_core\.delay_paths\.u_trc0\.delay_wire\[64\]
*584 u_core\.delay_paths\.u_trc0\.delay_wire\[65\]
*585 u_core\.delay_paths\.u_trc0\.delay_wire\[66\]
*586 u_core\.delay_paths\.u_trc0\.delay_wire\[67\]
*587 u_core\.delay_paths\.u_trc0\.delay_wire\[68\]
*588 u_core\.delay_paths\.u_trc0\.delay_wire\[69\]
*589 u_core\.delay_paths\.u_trc0\.delay_wire\[6\]
*590 u_core\.delay_paths\.u_trc0\.delay_wire\[70\]
*591 u_core\.delay_paths\.u_trc0\.delay_wire\[71\]
*592 u_core\.delay_paths\.u_trc0\.delay_wire\[72\]
*593 u_core\.delay_paths\.u_trc0\.delay_wire\[73\]
*594 u_core\.delay_paths\.u_trc0\.delay_wire\[74\]
*595 u_core\.delay_paths\.u_trc0\.delay_wire\[75\]
*596 u_core\.delay_paths\.u_trc0\.delay_wire\[76\]
*597 u_core\.delay_paths\.u_trc0\.delay_wire\[77\]
*598 u_core\.delay_paths\.u_trc0\.delay_wire\[78\]
*599 u_core\.delay_paths\.u_trc0\.delay_wire\[79\]
*600 u_core\.delay_paths\.u_trc0\.delay_wire\[7\]
*601 u_core\.delay_paths\.u_trc0\.delay_wire\[80\]
*602 u_core\.delay_paths\.u_trc0\.delay_wire\[81\]
*603 u_core\.delay_paths\.u_trc0\.delay_wire\[82\]
*604 u_core\.delay_paths\.u_trc0\.delay_wire\[83\]
*605 u_core\.delay_paths\.u_trc0\.delay_wire\[84\]
*606 u_core\.delay_paths\.u_trc0\.delay_wire\[85\]
*607 u_core\.delay_paths\.u_trc0\.delay_wire\[86\]
*608 u_core\.delay_paths\.u_trc0\.delay_wire\[87\]
*609 u_core\.delay_paths\.u_trc0\.delay_wire\[88\]
*610 u_core\.delay_paths\.u_trc0\.delay_wire\[89\]
*611 u_core\.delay_paths\.u_trc0\.delay_wire\[8\]
*612 u_core\.delay_paths\.u_trc0\.delay_wire\[90\]
*613 u_core\.delay_paths\.u_trc0\.delay_wire\[91\]
*614 u_core\.delay_paths\.u_trc0\.delay_wire\[92\]
*615 u_core\.delay_paths\.u_trc0\.delay_wire\[93\]
*616 u_core\.delay_paths\.u_trc0\.delay_wire\[94\]
*617 u_core\.delay_paths\.u_trc0\.delay_wire\[95\]
*618 u_core\.delay_paths\.u_trc0\.delay_wire\[96\]
*619 u_core\.delay_paths\.u_trc0\.delay_wire\[97\]
*620 u_core\.delay_paths\.u_trc0\.delay_wire\[98\]
*621 u_core\.delay_paths\.u_trc0\.delay_wire\[99\]
*622 u_core\.delay_paths\.u_trc0\.delay_wire\[9\]
*623 u_core\.delay_paths\.u_trc0\.launch_q
*624 u_core\.delay_paths\.u_trc0\.trc_data_actual
*625 u_core\.delay_paths\.u_trc1\.capture_q
*626 u_core\.delay_paths\.u_trc1\.check_error
*627 u_core\.delay_paths\.u_trc1\.delay_wire\[0\]
*628 u_core\.delay_paths\.u_trc1\.delay_wire\[100\]
*629 u_core\.delay_paths\.u_trc1\.delay_wire\[101\]
*630 u_core\.delay_paths\.u_trc1\.delay_wire\[102\]
*631 u_core\.delay_paths\.u_trc1\.delay_wire\[103\]
*632 u_core\.delay_paths\.u_trc1\.delay_wire\[104\]
*633 u_core\.delay_paths\.u_trc1\.delay_wire\[105\]
*634 u_core\.delay_paths\.u_trc1\.delay_wire\[106\]
*635 u_core\.delay_paths\.u_trc1\.delay_wire\[107\]
*636 u_core\.delay_paths\.u_trc1\.delay_wire\[108\]
*637 u_core\.delay_paths\.u_trc1\.delay_wire\[109\]
*638 u_core\.delay_paths\.u_trc1\.delay_wire\[10\]
*639 u_core\.delay_paths\.u_trc1\.delay_wire\[110\]
*640 u_core\.delay_paths\.u_trc1\.delay_wire\[111\]
*641 u_core\.delay_paths\.u_trc1\.delay_wire\[112\]
*642 u_core\.delay_paths\.u_trc1\.delay_wire\[113\]
*643 u_core\.delay_paths\.u_trc1\.delay_wire\[114\]
*644 u_core\.delay_paths\.u_trc1\.delay_wire\[115\]
*645 u_core\.delay_paths\.u_trc1\.delay_wire\[116\]
*646 u_core\.delay_paths\.u_trc1\.delay_wire\[117\]
*647 u_core\.delay_paths\.u_trc1\.delay_wire\[118\]
*648 u_core\.delay_paths\.u_trc1\.delay_wire\[119\]
*649 u_core\.delay_paths\.u_trc1\.delay_wire\[11\]
*650 u_core\.delay_paths\.u_trc1\.delay_wire\[120\]
*651 u_core\.delay_paths\.u_trc1\.delay_wire\[121\]
*652 u_core\.delay_paths\.u_trc1\.delay_wire\[122\]
*653 u_core\.delay_paths\.u_trc1\.delay_wire\[123\]
*654 u_core\.delay_paths\.u_trc1\.delay_wire\[124\]
*655 u_core\.delay_paths\.u_trc1\.delay_wire\[125\]
*656 u_core\.delay_paths\.u_trc1\.delay_wire\[126\]
*657 u_core\.delay_paths\.u_trc1\.delay_wire\[127\]
*658 u_core\.delay_paths\.u_trc1\.delay_wire\[128\]
*659 u_core\.delay_paths\.u_trc1\.delay_wire\[129\]
*660 u_core\.delay_paths\.u_trc1\.delay_wire\[12\]
*661 u_core\.delay_paths\.u_trc1\.delay_wire\[130\]
*662 u_core\.delay_paths\.u_trc1\.delay_wire\[131\]
*663 u_core\.delay_paths\.u_trc1\.delay_wire\[132\]
*664 u_core\.delay_paths\.u_trc1\.delay_wire\[133\]
*665 u_core\.delay_paths\.u_trc1\.delay_wire\[134\]
*666 u_core\.delay_paths\.u_trc1\.delay_wire\[135\]
*667 u_core\.delay_paths\.u_trc1\.delay_wire\[136\]
*668 u_core\.delay_paths\.u_trc1\.delay_wire\[137\]
*669 u_core\.delay_paths\.u_trc1\.delay_wire\[138\]
*670 u_core\.delay_paths\.u_trc1\.delay_wire\[139\]
*671 u_core\.delay_paths\.u_trc1\.delay_wire\[13\]
*672 u_core\.delay_paths\.u_trc1\.delay_wire\[140\]
*673 u_core\.delay_paths\.u_trc1\.delay_wire\[141\]
*674 u_core\.delay_paths\.u_trc1\.delay_wire\[142\]
*675 u_core\.delay_paths\.u_trc1\.delay_wire\[143\]
*676 u_core\.delay_paths\.u_trc1\.delay_wire\[144\]
*677 u_core\.delay_paths\.u_trc1\.delay_wire\[14\]
*678 u_core\.delay_paths\.u_trc1\.delay_wire\[15\]
*679 u_core\.delay_paths\.u_trc1\.delay_wire\[16\]
*680 u_core\.delay_paths\.u_trc1\.delay_wire\[17\]
*681 u_core\.delay_paths\.u_trc1\.delay_wire\[18\]
*682 u_core\.delay_paths\.u_trc1\.delay_wire\[19\]
*683 u_core\.delay_paths\.u_trc1\.delay_wire\[1\]
*684 u_core\.delay_paths\.u_trc1\.delay_wire\[20\]
*685 u_core\.delay_paths\.u_trc1\.delay_wire\[21\]
*686 u_core\.delay_paths\.u_trc1\.delay_wire\[22\]
*687 u_core\.delay_paths\.u_trc1\.delay_wire\[23\]
*688 u_core\.delay_paths\.u_trc1\.delay_wire\[24\]
*689 u_core\.delay_paths\.u_trc1\.delay_wire\[25\]
*690 u_core\.delay_paths\.u_trc1\.delay_wire\[26\]
*691 u_core\.delay_paths\.u_trc1\.delay_wire\[27\]
*692 u_core\.delay_paths\.u_trc1\.delay_wire\[28\]
*693 u_core\.delay_paths\.u_trc1\.delay_wire\[29\]
*694 u_core\.delay_paths\.u_trc1\.delay_wire\[2\]
*695 u_core\.delay_paths\.u_trc1\.delay_wire\[30\]
*696 u_core\.delay_paths\.u_trc1\.delay_wire\[31\]
*697 u_core\.delay_paths\.u_trc1\.delay_wire\[32\]
*698 u_core\.delay_paths\.u_trc1\.delay_wire\[33\]
*699 u_core\.delay_paths\.u_trc1\.delay_wire\[34\]
*700 u_core\.delay_paths\.u_trc1\.delay_wire\[35\]
*701 u_core\.delay_paths\.u_trc1\.delay_wire\[36\]
*702 u_core\.delay_paths\.u_trc1\.delay_wire\[37\]
*703 u_core\.delay_paths\.u_trc1\.delay_wire\[38\]
*704 u_core\.delay_paths\.u_trc1\.delay_wire\[39\]
*705 u_core\.delay_paths\.u_trc1\.delay_wire\[3\]
*706 u_core\.delay_paths\.u_trc1\.delay_wire\[40\]
*707 u_core\.delay_paths\.u_trc1\.delay_wire\[41\]
*708 u_core\.delay_paths\.u_trc1\.delay_wire\[42\]
*709 u_core\.delay_paths\.u_trc1\.delay_wire\[43\]
*710 u_core\.delay_paths\.u_trc1\.delay_wire\[44\]
*711 u_core\.delay_paths\.u_trc1\.delay_wire\[45\]
*712 u_core\.delay_paths\.u_trc1\.delay_wire\[46\]
*713 u_core\.delay_paths\.u_trc1\.delay_wire\[47\]
*714 u_core\.delay_paths\.u_trc1\.delay_wire\[48\]
*715 u_core\.delay_paths\.u_trc1\.delay_wire\[49\]
*716 u_core\.delay_paths\.u_trc1\.delay_wire\[4\]
*717 u_core\.delay_paths\.u_trc1\.delay_wire\[50\]
*718 u_core\.delay_paths\.u_trc1\.delay_wire\[51\]
*719 u_core\.delay_paths\.u_trc1\.delay_wire\[52\]
*720 u_core\.delay_paths\.u_trc1\.delay_wire\[53\]
*721 u_core\.delay_paths\.u_trc1\.delay_wire\[54\]
*722 u_core\.delay_paths\.u_trc1\.delay_wire\[55\]
*723 u_core\.delay_paths\.u_trc1\.delay_wire\[56\]
*724 u_core\.delay_paths\.u_trc1\.delay_wire\[57\]
*725 u_core\.delay_paths\.u_trc1\.delay_wire\[58\]
*726 u_core\.delay_paths\.u_trc1\.delay_wire\[59\]
*727 u_core\.delay_paths\.u_trc1\.delay_wire\[5\]
*728 u_core\.delay_paths\.u_trc1\.delay_wire\[60\]
*729 u_core\.delay_paths\.u_trc1\.delay_wire\[61\]
*730 u_core\.delay_paths\.u_trc1\.delay_wire\[62\]
*731 u_core\.delay_paths\.u_trc1\.delay_wire\[63\]
*732 u_core\.delay_paths\.u_trc1\.delay_wire\[64\]
*733 u_core\.delay_paths\.u_trc1\.delay_wire\[65\]
*734 u_core\.delay_paths\.u_trc1\.delay_wire\[66\]
*735 u_core\.delay_paths\.u_trc1\.delay_wire\[67\]
*736 u_core\.delay_paths\.u_trc1\.delay_wire\[68\]
*737 u_core\.delay_paths\.u_trc1\.delay_wire\[69\]
*738 u_core\.delay_paths\.u_trc1\.delay_wire\[6\]
*739 u_core\.delay_paths\.u_trc1\.delay_wire\[70\]
*740 u_core\.delay_paths\.u_trc1\.delay_wire\[71\]
*741 u_core\.delay_paths\.u_trc1\.delay_wire\[72\]
*742 u_core\.delay_paths\.u_trc1\.delay_wire\[73\]
*743 u_core\.delay_paths\.u_trc1\.delay_wire\[74\]
*744 u_core\.delay_paths\.u_trc1\.delay_wire\[75\]
*745 u_core\.delay_paths\.u_trc1\.delay_wire\[76\]
*746 u_core\.delay_paths\.u_trc1\.delay_wire\[77\]
*747 u_core\.delay_paths\.u_trc1\.delay_wire\[78\]
*748 u_core\.delay_paths\.u_trc1\.delay_wire\[79\]
*749 u_core\.delay_paths\.u_trc1\.delay_wire\[7\]
*750 u_core\.delay_paths\.u_trc1\.delay_wire\[80\]
*751 u_core\.delay_paths\.u_trc1\.delay_wire\[81\]
*752 u_core\.delay_paths\.u_trc1\.delay_wire\[82\]
*753 u_core\.delay_paths\.u_trc1\.delay_wire\[83\]
*754 u_core\.delay_paths\.u_trc1\.delay_wire\[84\]
*755 u_core\.delay_paths\.u_trc1\.delay_wire\[85\]
*756 u_core\.delay_paths\.u_trc1\.delay_wire\[86\]
*757 u_core\.delay_paths\.u_trc1\.delay_wire\[87\]
*758 u_core\.delay_paths\.u_trc1\.delay_wire\[88\]
*759 u_core\.delay_paths\.u_trc1\.delay_wire\[89\]
*760 u_core\.delay_paths\.u_trc1\.delay_wire\[8\]
*761 u_core\.delay_paths\.u_trc1\.delay_wire\[90\]
*762 u_core\.delay_paths\.u_trc1\.delay_wire\[91\]
*763 u_core\.delay_paths\.u_trc1\.delay_wire\[92\]
*764 u_core\.delay_paths\.u_trc1\.delay_wire\[93\]
*765 u_core\.delay_paths\.u_trc1\.delay_wire\[94\]
*766 u_core\.delay_paths\.u_trc1\.delay_wire\[95\]
*767 u_core\.delay_paths\.u_trc1\.delay_wire\[96\]
*768 u_core\.delay_paths\.u_trc1\.delay_wire\[97\]
*769 u_core\.delay_paths\.u_trc1\.delay_wire\[98\]
*770 u_core\.delay_paths\.u_trc1\.delay_wire\[99\]
*771 u_core\.delay_paths\.u_trc1\.delay_wire\[9\]
*772 u_core\.delay_paths\.u_trc1\.launch_q
*773 u_core\.delay_paths\.u_trc1\.trc_data_actual
*774 u_core\.delay_paths\.u_trc2\.capture_q
*775 u_core\.delay_paths\.u_trc2\.check_error
*776 u_core\.delay_paths\.u_trc2\.delay_wire\[0\]
*777 u_core\.delay_paths\.u_trc2\.delay_wire\[10\]
*778 u_core\.delay_paths\.u_trc2\.delay_wire\[11\]
*779 u_core\.delay_paths\.u_trc2\.delay_wire\[12\]
*780 u_core\.delay_paths\.u_trc2\.delay_wire\[13\]
*781 u_core\.delay_paths\.u_trc2\.delay_wire\[14\]
*782 u_core\.delay_paths\.u_trc2\.delay_wire\[15\]
*783 u_core\.delay_paths\.u_trc2\.delay_wire\[16\]
*784 u_core\.delay_paths\.u_trc2\.delay_wire\[17\]
*785 u_core\.delay_paths\.u_trc2\.delay_wire\[18\]
*786 u_core\.delay_paths\.u_trc2\.delay_wire\[19\]
*787 u_core\.delay_paths\.u_trc2\.delay_wire\[1\]
*788 u_core\.delay_paths\.u_trc2\.delay_wire\[20\]
*789 u_core\.delay_paths\.u_trc2\.delay_wire\[21\]
*790 u_core\.delay_paths\.u_trc2\.delay_wire\[22\]
*791 u_core\.delay_paths\.u_trc2\.delay_wire\[23\]
*792 u_core\.delay_paths\.u_trc2\.delay_wire\[24\]
*793 u_core\.delay_paths\.u_trc2\.delay_wire\[25\]
*794 u_core\.delay_paths\.u_trc2\.delay_wire\[26\]
*795 u_core\.delay_paths\.u_trc2\.delay_wire\[27\]
*796 u_core\.delay_paths\.u_trc2\.delay_wire\[28\]
*797 u_core\.delay_paths\.u_trc2\.delay_wire\[29\]
*798 u_core\.delay_paths\.u_trc2\.delay_wire\[2\]
*799 u_core\.delay_paths\.u_trc2\.delay_wire\[30\]
*800 u_core\.delay_paths\.u_trc2\.delay_wire\[31\]
*801 u_core\.delay_paths\.u_trc2\.delay_wire\[32\]
*802 u_core\.delay_paths\.u_trc2\.delay_wire\[33\]
*803 u_core\.delay_paths\.u_trc2\.delay_wire\[34\]
*804 u_core\.delay_paths\.u_trc2\.delay_wire\[35\]
*805 u_core\.delay_paths\.u_trc2\.delay_wire\[36\]
*806 u_core\.delay_paths\.u_trc2\.delay_wire\[37\]
*807 u_core\.delay_paths\.u_trc2\.delay_wire\[38\]
*808 u_core\.delay_paths\.u_trc2\.delay_wire\[39\]
*809 u_core\.delay_paths\.u_trc2\.delay_wire\[3\]
*810 u_core\.delay_paths\.u_trc2\.delay_wire\[40\]
*811 u_core\.delay_paths\.u_trc2\.delay_wire\[41\]
*812 u_core\.delay_paths\.u_trc2\.delay_wire\[42\]
*813 u_core\.delay_paths\.u_trc2\.delay_wire\[43\]
*814 u_core\.delay_paths\.u_trc2\.delay_wire\[44\]
*815 u_core\.delay_paths\.u_trc2\.delay_wire\[45\]
*816 u_core\.delay_paths\.u_trc2\.delay_wire\[46\]
*817 u_core\.delay_paths\.u_trc2\.delay_wire\[47\]
*818 u_core\.delay_paths\.u_trc2\.delay_wire\[48\]
*819 u_core\.delay_paths\.u_trc2\.delay_wire\[49\]
*820 u_core\.delay_paths\.u_trc2\.delay_wire\[4\]
*821 u_core\.delay_paths\.u_trc2\.delay_wire\[50\]
*822 u_core\.delay_paths\.u_trc2\.delay_wire\[51\]
*823 u_core\.delay_paths\.u_trc2\.delay_wire\[52\]
*824 u_core\.delay_paths\.u_trc2\.delay_wire\[53\]
*825 u_core\.delay_paths\.u_trc2\.delay_wire\[54\]
*826 u_core\.delay_paths\.u_trc2\.delay_wire\[55\]
*827 u_core\.delay_paths\.u_trc2\.delay_wire\[56\]
*828 u_core\.delay_paths\.u_trc2\.delay_wire\[57\]
*829 u_core\.delay_paths\.u_trc2\.delay_wire\[58\]
*830 u_core\.delay_paths\.u_trc2\.delay_wire\[59\]
*831 u_core\.delay_paths\.u_trc2\.delay_wire\[5\]
*832 u_core\.delay_paths\.u_trc2\.delay_wire\[60\]
*833 u_core\.delay_paths\.u_trc2\.delay_wire\[61\]
*834 u_core\.delay_paths\.u_trc2\.delay_wire\[62\]
*835 u_core\.delay_paths\.u_trc2\.delay_wire\[63\]
*836 u_core\.delay_paths\.u_trc2\.delay_wire\[64\]
*837 u_core\.delay_paths\.u_trc2\.delay_wire\[65\]
*838 u_core\.delay_paths\.u_trc2\.delay_wire\[66\]
*839 u_core\.delay_paths\.u_trc2\.delay_wire\[67\]
*840 u_core\.delay_paths\.u_trc2\.delay_wire\[68\]
*841 u_core\.delay_paths\.u_trc2\.delay_wire\[69\]
*842 u_core\.delay_paths\.u_trc2\.delay_wire\[6\]
*843 u_core\.delay_paths\.u_trc2\.delay_wire\[70\]
*844 u_core\.delay_paths\.u_trc2\.delay_wire\[71\]
*845 u_core\.delay_paths\.u_trc2\.delay_wire\[72\]
*846 u_core\.delay_paths\.u_trc2\.delay_wire\[73\]
*847 u_core\.delay_paths\.u_trc2\.delay_wire\[74\]
*848 u_core\.delay_paths\.u_trc2\.delay_wire\[75\]
*849 u_core\.delay_paths\.u_trc2\.delay_wire\[76\]
*850 u_core\.delay_paths\.u_trc2\.delay_wire\[77\]
*851 u_core\.delay_paths\.u_trc2\.delay_wire\[78\]
*852 u_core\.delay_paths\.u_trc2\.delay_wire\[79\]
*853 u_core\.delay_paths\.u_trc2\.delay_wire\[7\]
*854 u_core\.delay_paths\.u_trc2\.delay_wire\[80\]
*855 u_core\.delay_paths\.u_trc2\.delay_wire\[81\]
*856 u_core\.delay_paths\.u_trc2\.delay_wire\[82\]
*857 u_core\.delay_paths\.u_trc2\.delay_wire\[83\]
*858 u_core\.delay_paths\.u_trc2\.delay_wire\[84\]
*859 u_core\.delay_paths\.u_trc2\.delay_wire\[85\]
*860 u_core\.delay_paths\.u_trc2\.delay_wire\[86\]
*861 u_core\.delay_paths\.u_trc2\.delay_wire\[87\]
*862 u_core\.delay_paths\.u_trc2\.delay_wire\[88\]
*863 u_core\.delay_paths\.u_trc2\.delay_wire\[89\]
*864 u_core\.delay_paths\.u_trc2\.delay_wire\[8\]
*865 u_core\.delay_paths\.u_trc2\.delay_wire\[90\]
*866 u_core\.delay_paths\.u_trc2\.delay_wire\[91\]
*867 u_core\.delay_paths\.u_trc2\.delay_wire\[92\]
*868 u_core\.delay_paths\.u_trc2\.delay_wire\[93\]
*869 u_core\.delay_paths\.u_trc2\.delay_wire\[94\]
*870 u_core\.delay_paths\.u_trc2\.delay_wire\[95\]
*871 u_core\.delay_paths\.u_trc2\.delay_wire\[96\]
*872 u_core\.delay_paths\.u_trc2\.delay_wire\[9\]
*873 u_core\.delay_paths\.u_trc2\.launch_q
*874 u_core\.delay_paths\.u_trc2\.trc_data_actual
*875 u_core\.delay_paths\.u_trc3\.capture_q
*876 u_core\.delay_paths\.u_trc3\.check_error
*877 u_core\.delay_paths\.u_trc3\.delay_wire\[0\]
*878 u_core\.delay_paths\.u_trc3\.delay_wire\[10\]
*879 u_core\.delay_paths\.u_trc3\.delay_wire\[11\]
*880 u_core\.delay_paths\.u_trc3\.delay_wire\[12\]
*881 u_core\.delay_paths\.u_trc3\.delay_wire\[13\]
*882 u_core\.delay_paths\.u_trc3\.delay_wire\[14\]
*883 u_core\.delay_paths\.u_trc3\.delay_wire\[15\]
*884 u_core\.delay_paths\.u_trc3\.delay_wire\[16\]
*885 u_core\.delay_paths\.u_trc3\.delay_wire\[17\]
*886 u_core\.delay_paths\.u_trc3\.delay_wire\[18\]
*887 u_core\.delay_paths\.u_trc3\.delay_wire\[19\]
*888 u_core\.delay_paths\.u_trc3\.delay_wire\[1\]
*889 u_core\.delay_paths\.u_trc3\.delay_wire\[20\]
*890 u_core\.delay_paths\.u_trc3\.delay_wire\[21\]
*891 u_core\.delay_paths\.u_trc3\.delay_wire\[22\]
*892 u_core\.delay_paths\.u_trc3\.delay_wire\[23\]
*893 u_core\.delay_paths\.u_trc3\.delay_wire\[24\]
*894 u_core\.delay_paths\.u_trc3\.delay_wire\[25\]
*895 u_core\.delay_paths\.u_trc3\.delay_wire\[26\]
*896 u_core\.delay_paths\.u_trc3\.delay_wire\[27\]
*897 u_core\.delay_paths\.u_trc3\.delay_wire\[28\]
*898 u_core\.delay_paths\.u_trc3\.delay_wire\[29\]
*899 u_core\.delay_paths\.u_trc3\.delay_wire\[2\]
*900 u_core\.delay_paths\.u_trc3\.delay_wire\[30\]
*901 u_core\.delay_paths\.u_trc3\.delay_wire\[31\]
*902 u_core\.delay_paths\.u_trc3\.delay_wire\[32\]
*903 u_core\.delay_paths\.u_trc3\.delay_wire\[33\]
*904 u_core\.delay_paths\.u_trc3\.delay_wire\[34\]
*905 u_core\.delay_paths\.u_trc3\.delay_wire\[35\]
*906 u_core\.delay_paths\.u_trc3\.delay_wire\[36\]
*907 u_core\.delay_paths\.u_trc3\.delay_wire\[37\]
*908 u_core\.delay_paths\.u_trc3\.delay_wire\[38\]
*909 u_core\.delay_paths\.u_trc3\.delay_wire\[39\]
*910 u_core\.delay_paths\.u_trc3\.delay_wire\[3\]
*911 u_core\.delay_paths\.u_trc3\.delay_wire\[40\]
*912 u_core\.delay_paths\.u_trc3\.delay_wire\[41\]
*913 u_core\.delay_paths\.u_trc3\.delay_wire\[42\]
*914 u_core\.delay_paths\.u_trc3\.delay_wire\[43\]
*915 u_core\.delay_paths\.u_trc3\.delay_wire\[44\]
*916 u_core\.delay_paths\.u_trc3\.delay_wire\[45\]
*917 u_core\.delay_paths\.u_trc3\.delay_wire\[46\]
*918 u_core\.delay_paths\.u_trc3\.delay_wire\[47\]
*919 u_core\.delay_paths\.u_trc3\.delay_wire\[48\]
*920 u_core\.delay_paths\.u_trc3\.delay_wire\[4\]
*921 u_core\.delay_paths\.u_trc3\.delay_wire\[5\]
*922 u_core\.delay_paths\.u_trc3\.delay_wire\[6\]
*923 u_core\.delay_paths\.u_trc3\.delay_wire\[7\]
*924 u_core\.delay_paths\.u_trc3\.delay_wire\[8\]
*925 u_core\.delay_paths\.u_trc3\.delay_wire\[9\]
*926 u_core\.delay_paths\.u_trc3\.launch_q
*927 u_core\.delay_paths\.u_trc3\.trc_data_actual
*928 u_core\.manual_trc_sel\[0\]
*929 u_core\.manual_trc_sel\[1\]
*930 u_core\.reg_addr\[0\]
*931 u_core\.reg_addr\[1\]
*932 u_core\.reg_wdata\[0\]
*933 u_core\.reg_wdata\[1\]
*934 u_core\.reg_wdata\[2\]
*935 u_core\.reg_wdata\[3\]
*936 u_core\.reg_wdata\[4\]
*937 u_core\.reg_write
*938 u_core\.register_file\.oVGD_EN
*939 u_core\.register_file\.rdata_status\[0\]
*940 u_core\.register_file\.rdata_status\[1\]
*941 u_core\.register_file\.rdata_status\[2\]
*942 u_core\.register_file\.rdata_status\[3\]
*943 u_core\.register_file\.rdata_status\[5\]
*944 u_core\.register_file\.rdata_status\[6\]
*945 u_core\.spi_interface\.bit_cnt\[0\]
*946 u_core\.spi_interface\.bit_cnt\[1\]
*947 u_core\.spi_interface\.bit_cnt\[2\]
*948 u_core\.spi_interface\.done_sync\[0\]
*949 u_core\.spi_interface\.done_sync\[1\]
*950 u_core\.spi_interface\.done_sync\[2\]
*951 u_core\.spi_interface\.read_buffer\[1\]
*952 u_core\.spi_interface\.read_buffer\[2\]
*953 u_core\.spi_interface\.read_buffer\[3\]
*954 u_core\.spi_interface\.read_buffer\[4\]
*955 u_core\.spi_interface\.read_buffer\[5\]
*956 u_core\.spi_interface\.read_buffer\[6\]
*957 u_core\.spi_interface\.read_buffer\[7\]
*958 u_core\.spi_interface\.shift_reg\[0\]
*959 u_core\.spi_interface\.shift_reg\[1\]
*960 u_core\.spi_interface\.shift_reg\[2\]
*961 u_core\.spi_interface\.shift_reg\[3\]
*962 u_core\.spi_interface\.shift_reg\[4\]
*963 u_core\.spi_interface\.shift_reg\[5\]
*964 u_core\.spi_interface\.shift_reg\[6\]
*965 u_core\.spi_interface\.shift_reg\[7\]
*966 u_core\.spi_interface\.transaction_done
*967 FILLER_0_110
*968 FILLER_0_118
*969 FILLER_0_132
*970 FILLER_0_138
*971 FILLER_0_151
*972 FILLER_0_155
*973 FILLER_0_160
*974 FILLER_0_168
*975 FILLER_0_176
*976 FILLER_0_192
*977 FILLER_0_2
*978 FILLER_0_200
*979 FILLER_0_206
*980 FILLER_0_240
*981 FILLER_0_274
*982 FILLER_0_276
*983 FILLER_0_293
*984 FILLER_0_297
*985 FILLER_0_303
*986 FILLER_0_305
*987 FILLER_0_308
*988 FILLER_0_310
*989 FILLER_0_315
*990 FILLER_0_331
*991 FILLER_0_339
*992 FILLER_0_342
*993 FILLER_0_36
*994 FILLER_0_376
*995 FILLER_0_378
*996 FILLER_0_387
*997 FILLER_0_403
*998 FILLER_0_407
*999 FILLER_0_410
*1000 FILLER_0_426
*1001 FILLER_0_52
*1002 FILLER_0_57
*1003 FILLER_0_66
*1004 FILLER_0_70
*1005 FILLER_0_89
*1006 FILLER_10_107
*1007 FILLER_10_117
*1008 FILLER_10_133
*1009 FILLER_10_141
*1010 FILLER_10_174
*1011 FILLER_10_177
*1012 FILLER_10_185
*1013 FILLER_10_189
*1014 FILLER_10_191
*1015 FILLER_10_2
*1016 FILLER_10_204
*1017 FILLER_10_212
*1018 FILLER_10_224
*1019 FILLER_10_242
*1020 FILLER_10_244
*1021 FILLER_10_247
*1022 FILLER_10_297
*1023 FILLER_10_313
*1024 FILLER_10_317
*1025 FILLER_10_325
*1026 FILLER_10_331
*1027 FILLER_10_335
*1028 FILLER_10_337
*1029 FILLER_10_34
*1030 FILLER_10_37
*1031 FILLER_10_372
*1032 FILLER_10_380
*1033 FILLER_10_384
*1034 FILLER_10_387
*1035 FILLER_10_69
*1036 FILLER_10_77
*1037 FILLER_11_102
*1038 FILLER_11_116
*1039 FILLER_11_132
*1040 FILLER_11_142
*1041 FILLER_11_144
*1042 FILLER_11_149
*1043 FILLER_11_165
*1044 FILLER_11_183
*1045 FILLER_11_191
*1046 FILLER_11_2
*1047 FILLER_11_205
*1048 FILLER_11_209
*1049 FILLER_11_212
*1050 FILLER_11_222
*1051 FILLER_11_236
*1052 FILLER_11_243
*1053 FILLER_11_277
*1054 FILLER_11_279
*1055 FILLER_11_282
*1056 FILLER_11_290
*1057 FILLER_11_328
*1058 FILLER_11_344
*1059 FILLER_11_348
*1060 FILLER_11_392
*1061 FILLER_11_422
*1062 FILLER_11_66
*1063 FILLER_11_72
*1064 FILLER_11_80
*1065 FILLER_11_94
*1066 FILLER_12_103
*1067 FILLER_12_107
*1068 FILLER_12_128
*1069 FILLER_12_130
*1070 FILLER_12_143
*1071 FILLER_12_148
*1072 FILLER_12_153
*1073 FILLER_12_169
*1074 FILLER_12_177
*1075 FILLER_12_186
*1076 FILLER_12_2
*1077 FILLER_12_206
*1078 FILLER_12_210
*1079 FILLER_12_281
*1080 FILLER_12_297
*1081 FILLER_12_299
*1082 FILLER_12_317
*1083 FILLER_12_34
*1084 FILLER_12_353
*1085 FILLER_12_357
*1086 FILLER_12_359
*1087 FILLER_12_37
*1088 FILLER_12_383
*1089 FILLER_12_421
*1090 FILLER_12_429
*1091 FILLER_12_69
*1092 FILLER_12_77
*1093 FILLER_12_91
*1094 FILLER_12_99
*1095 FILLER_13_107
*1096 FILLER_13_111
*1097 FILLER_13_142
*1098 FILLER_13_144
*1099 FILLER_13_161
*1100 FILLER_13_169
*1101 FILLER_13_190
*1102 FILLER_13_198
*1103 FILLER_13_2
*1104 FILLER_13_200
*1105 FILLER_13_209
*1106 FILLER_13_212
*1107 FILLER_13_254
*1108 FILLER_13_270
*1109 FILLER_13_278
*1110 FILLER_13_286
*1111 FILLER_13_302
*1112 FILLER_13_310
*1113 FILLER_13_319
*1114 FILLER_13_323
*1115 FILLER_13_339
*1116 FILLER_13_347
*1117 FILLER_13_349
*1118 FILLER_13_352
*1119 FILLER_13_356
*1120 FILLER_13_66
*1121 FILLER_13_72
*1122 FILLER_13_76
*1123 FILLER_13_90
*1124 FILLER_13_99
*1125 FILLER_14_107
*1126 FILLER_14_123
*1127 FILLER_14_127
*1128 FILLER_14_132
*1129 FILLER_14_140
*1130 FILLER_14_144
*1131 FILLER_14_146
*1132 FILLER_14_151
*1133 FILLER_14_165
*1134 FILLER_14_169
*1135 FILLER_14_177
*1136 FILLER_14_191
*1137 FILLER_14_199
*1138 FILLER_14_2
*1139 FILLER_14_217
*1140 FILLER_14_233
*1141 FILLER_14_241
*1142 FILLER_14_247
*1143 FILLER_14_255
*1144 FILLER_14_257
*1145 FILLER_14_273
*1146 FILLER_14_308
*1147 FILLER_14_312
*1148 FILLER_14_314
*1149 FILLER_14_332
*1150 FILLER_14_336
*1151 FILLER_14_34
*1152 FILLER_14_343
*1153 FILLER_14_37
*1154 FILLER_14_379
*1155 FILLER_14_383
*1156 FILLER_14_421
*1157 FILLER_14_423
*1158 FILLER_14_69
*1159 FILLER_15_108
*1160 FILLER_15_110
*1161 FILLER_15_115
*1162 FILLER_15_131
*1163 FILLER_15_139
*1164 FILLER_15_142
*1165 FILLER_15_158
*1166 FILLER_15_171
*1167 FILLER_15_175
*1168 FILLER_15_195
*1169 FILLER_15_2
*1170 FILLER_15_203
*1171 FILLER_15_207
*1172 FILLER_15_209
*1173 FILLER_15_220
*1174 FILLER_15_236
*1175 FILLER_15_422
*1176 FILLER_15_66
*1177 FILLER_15_72
*1178 FILLER_15_88
*1179 FILLER_16_147
*1180 FILLER_16_155
*1181 FILLER_16_159
*1182 FILLER_16_168
*1183 FILLER_16_172
*1184 FILLER_16_174
*1185 FILLER_16_177
*1186 FILLER_16_185
*1187 FILLER_16_187
*1188 FILLER_16_2
*1189 FILLER_16_200
*1190 FILLER_16_208
*1191 FILLER_16_226
*1192 FILLER_16_242
*1193 FILLER_16_244
*1194 FILLER_16_247
*1195 FILLER_16_251
*1196 FILLER_16_253
*1197 FILLER_16_304
*1198 FILLER_16_306
*1199 FILLER_16_34
*1200 FILLER_16_367
*1201 FILLER_16_37
*1202 FILLER_16_382
*1203 FILLER_16_384
*1204 FILLER_16_387
*1205 FILLER_17_104
*1206 FILLER_17_112
*1207 FILLER_17_170
*1208 FILLER_17_178
*1209 FILLER_17_184
*1210 FILLER_17_2
*1211 FILLER_17_204
*1212 FILLER_17_208
*1213 FILLER_17_212
*1214 FILLER_17_214
*1215 FILLER_17_233
*1216 FILLER_17_249
*1217 FILLER_17_253
*1218 FILLER_17_262
*1219 FILLER_17_278
*1220 FILLER_17_282
*1221 FILLER_17_299
*1222 FILLER_17_301
*1223 FILLER_17_323
*1224 FILLER_17_331
*1225 FILLER_17_335
*1226 FILLER_17_345
*1227 FILLER_17_349
*1228 FILLER_17_352
*1229 FILLER_17_363
*1230 FILLER_17_426
*1231 FILLER_17_66
*1232 FILLER_17_72
*1233 FILLER_18_101
*1234 FILLER_18_107
*1235 FILLER_18_139
*1236 FILLER_18_155
*1237 FILLER_18_159
*1238 FILLER_18_165
*1239 FILLER_18_177
*1240 FILLER_18_193
*1241 FILLER_18_2
*1242 FILLER_18_247
*1243 FILLER_18_282
*1244 FILLER_18_298
*1245 FILLER_18_307
*1246 FILLER_18_317
*1247 FILLER_18_325
*1248 FILLER_18_329
*1249 FILLER_18_34
*1250 FILLER_18_37
*1251 FILLER_18_373
*1252 FILLER_18_377
*1253 FILLER_18_383
*1254 FILLER_18_387
*1255 FILLER_18_395
*1256 FILLER_19_100
*1257 FILLER_19_102
*1258 FILLER_19_107
*1259 FILLER_19_109
*1260 FILLER_19_114
*1261 FILLER_19_123
*1262 FILLER_19_125
*1263 FILLER_19_130
*1264 FILLER_19_138
*1265 FILLER_19_142
*1266 FILLER_19_150
*1267 FILLER_19_188
*1268 FILLER_19_196
*1269 FILLER_19_2
*1270 FILLER_19_204
*1271 FILLER_19_208
*1272 FILLER_19_212
*1273 FILLER_19_214
*1274 FILLER_19_272
*1275 FILLER_19_297
*1276 FILLER_19_344
*1277 FILLER_19_348
*1278 FILLER_19_352
*1279 FILLER_19_354
*1280 FILLER_19_389
*1281 FILLER_19_405
*1282 FILLER_19_413
*1283 FILLER_19_417
*1284 FILLER_19_419
*1285 FILLER_19_422
*1286 FILLER_19_66
*1287 FILLER_19_72
*1288 FILLER_19_88
*1289 FILLER_19_96
*1290 FILLER_1_10
*1291 FILLER_1_100
*1292 FILLER_1_102
*1293 FILLER_1_115
*1294 FILLER_1_122
*1295 FILLER_1_138
*1296 FILLER_1_142
*1297 FILLER_1_144
*1298 FILLER_1_185
*1299 FILLER_1_189
*1300 FILLER_1_194
*1301 FILLER_1_212
*1302 FILLER_1_244
*1303 FILLER_1_260
*1304 FILLER_1_268
*1305 FILLER_1_342
*1306 FILLER_1_352
*1307 FILLER_1_361
*1308 FILLER_1_365
*1309 FILLER_1_391
*1310 FILLER_1_407
*1311 FILLER_1_415
*1312 FILLER_1_419
*1313 FILLER_1_422
*1314 FILLER_1_48
*1315 FILLER_1_60
*1316 FILLER_1_72
*1317 FILLER_20_147
*1318 FILLER_20_163
*1319 FILLER_20_167
*1320 FILLER_20_177
*1321 FILLER_20_2
*1322 FILLER_20_225
*1323 FILLER_20_241
*1324 FILLER_20_247
*1325 FILLER_20_263
*1326 FILLER_20_271
*1327 FILLER_20_309
*1328 FILLER_20_313
*1329 FILLER_20_317
*1330 FILLER_20_325
*1331 FILLER_20_329
*1332 FILLER_20_331
*1333 FILLER_20_34
*1334 FILLER_20_366
*1335 FILLER_20_37
*1336 FILLER_20_382
*1337 FILLER_20_384
*1338 FILLER_20_387
*1339 FILLER_20_405
*1340 FILLER_20_409
*1341 FILLER_20_411
*1342 FILLER_20_427
*1343 FILLER_20_429
*1344 FILLER_20_69
*1345 FILLER_20_85
*1346 FILLER_20_93
*1347 FILLER_21_106
*1348 FILLER_21_112
*1349 FILLER_21_128
*1350 FILLER_21_176
*1351 FILLER_21_183
*1352 FILLER_21_199
*1353 FILLER_21_2
*1354 FILLER_21_207
*1355 FILLER_21_209
*1356 FILLER_21_212
*1357 FILLER_21_241
*1358 FILLER_21_249
*1359 FILLER_21_265
*1360 FILLER_21_273
*1361 FILLER_21_277
*1362 FILLER_21_279
*1363 FILLER_21_282
*1364 FILLER_21_290
*1365 FILLER_21_294
*1366 FILLER_21_307
*1367 FILLER_21_317
*1368 FILLER_21_333
*1369 FILLER_21_337
*1370 FILLER_21_342
*1371 FILLER_21_352
*1372 FILLER_21_370
*1373 FILLER_21_374
*1374 FILLER_21_376
*1375 FILLER_21_381
*1376 FILLER_21_385
*1377 FILLER_21_426
*1378 FILLER_21_66
*1379 FILLER_21_72
*1380 FILLER_21_88
*1381 FILLER_21_92
*1382 FILLER_22_107
*1383 FILLER_22_115
*1384 FILLER_22_124
*1385 FILLER_22_129
*1386 FILLER_22_145
*1387 FILLER_22_153
*1388 FILLER_22_189
*1389 FILLER_22_2
*1390 FILLER_22_205
*1391 FILLER_22_209
*1392 FILLER_22_247
*1393 FILLER_22_283
*1394 FILLER_22_300
*1395 FILLER_22_308
*1396 FILLER_22_310
*1397 FILLER_22_321
*1398 FILLER_22_325
*1399 FILLER_22_331
*1400 FILLER_22_34
*1401 FILLER_22_341
*1402 FILLER_22_357
*1403 FILLER_22_37
*1404 FILLER_22_370
*1405 FILLER_22_378
*1406 FILLER_22_382
*1407 FILLER_22_384
*1408 FILLER_22_391
*1409 FILLER_22_393
*1410 FILLER_22_428
*1411 FILLER_22_69
*1412 FILLER_22_85
*1413 FILLER_23_146
*1414 FILLER_23_155
*1415 FILLER_23_171
*1416 FILLER_23_175
*1417 FILLER_23_2
*1418 FILLER_23_212
*1419 FILLER_23_216
*1420 FILLER_23_218
*1421 FILLER_23_256
*1422 FILLER_23_264
*1423 FILLER_23_282
*1424 FILLER_23_286
*1425 FILLER_23_288
*1426 FILLER_23_323
*1427 FILLER_23_339
*1428 FILLER_23_347
*1429 FILLER_23_349
*1430 FILLER_23_352
*1431 FILLER_23_360
*1432 FILLER_23_362
*1433 FILLER_23_397
*1434 FILLER_23_405
*1435 FILLER_23_409
*1436 FILLER_23_411
*1437 FILLER_23_422
*1438 FILLER_23_66
*1439 FILLER_23_72
*1440 FILLER_23_88
*1441 FILLER_24_103
*1442 FILLER_24_107
*1443 FILLER_24_171
*1444 FILLER_24_177
*1445 FILLER_24_179
*1446 FILLER_24_188
*1447 FILLER_24_196
*1448 FILLER_24_198
*1449 FILLER_24_2
*1450 FILLER_24_237
*1451 FILLER_24_247
*1452 FILLER_24_255
*1453 FILLER_24_259
*1454 FILLER_24_297
*1455 FILLER_24_299
*1456 FILLER_24_306
*1457 FILLER_24_314
*1458 FILLER_24_317
*1459 FILLER_24_34
*1460 FILLER_24_357
*1461 FILLER_24_37
*1462 FILLER_24_373
*1463 FILLER_24_381
*1464 FILLER_24_387
*1465 FILLER_24_391
*1466 FILLER_24_69
*1467 FILLER_24_85
*1468 FILLER_24_93
*1469 FILLER_24_97
*1470 FILLER_25_113
*1471 FILLER_25_121
*1472 FILLER_25_125
*1473 FILLER_25_135
*1474 FILLER_25_139
*1475 FILLER_25_142
*1476 FILLER_25_180
*1477 FILLER_25_182
*1478 FILLER_25_193
*1479 FILLER_25_195
*1480 FILLER_25_2
*1481 FILLER_25_209
*1482 FILLER_25_212
*1483 FILLER_25_220
*1484 FILLER_25_224
*1485 FILLER_25_260
*1486 FILLER_25_268
*1487 FILLER_25_272
*1488 FILLER_25_282
*1489 FILLER_25_290
*1490 FILLER_25_333
*1491 FILLER_25_346
*1492 FILLER_25_352
*1493 FILLER_25_361
*1494 FILLER_25_365
*1495 FILLER_25_367
*1496 FILLER_25_384
*1497 FILLER_25_406
*1498 FILLER_25_414
*1499 FILLER_25_418
*1500 FILLER_25_426
*1501 FILLER_25_66
*1502 FILLER_25_72
*1503 FILLER_25_76
*1504 FILLER_25_78
*1505 FILLER_26_101
*1506 FILLER_26_165
*1507 FILLER_26_177
*1508 FILLER_26_2
*1509 FILLER_26_231
*1510 FILLER_26_235
*1511 FILLER_26_291
*1512 FILLER_26_307
*1513 FILLER_26_317
*1514 FILLER_26_319
*1515 FILLER_26_34
*1516 FILLER_26_343
*1517 FILLER_26_347
*1518 FILLER_26_349
*1519 FILLER_26_37
*1520 FILLER_26_384
*1521 FILLER_26_397
*1522 FILLER_26_413
*1523 FILLER_26_415
*1524 FILLER_26_69
*1525 FILLER_26_77
*1526 FILLER_26_85
*1527 FILLER_27_116
*1528 FILLER_27_120
*1529 FILLER_27_137
*1530 FILLER_27_139
*1531 FILLER_27_147
*1532 FILLER_27_160
*1533 FILLER_27_168
*1534 FILLER_27_172
*1535 FILLER_27_191
*1536 FILLER_27_199
*1537 FILLER_27_2
*1538 FILLER_27_206
*1539 FILLER_27_212
*1540 FILLER_27_220
*1541 FILLER_27_224
*1542 FILLER_27_233
*1543 FILLER_27_241
*1544 FILLER_27_245
*1545 FILLER_27_257
*1546 FILLER_27_273
*1547 FILLER_27_277
*1548 FILLER_27_279
*1549 FILLER_27_347
*1550 FILLER_27_349
*1551 FILLER_27_352
*1552 FILLER_27_356
*1553 FILLER_27_392
*1554 FILLER_27_408
*1555 FILLER_27_416
*1556 FILLER_27_422
*1557 FILLER_27_66
*1558 FILLER_27_72
*1559 FILLER_28_103
*1560 FILLER_28_107
*1561 FILLER_28_115
*1562 FILLER_28_172
*1563 FILLER_28_174
*1564 FILLER_28_181
*1565 FILLER_28_199
*1566 FILLER_28_2
*1567 FILLER_28_207
*1568 FILLER_28_211
*1569 FILLER_28_317
*1570 FILLER_28_321
*1571 FILLER_28_323
*1572 FILLER_28_34
*1573 FILLER_28_358
*1574 FILLER_28_37
*1575 FILLER_28_374
*1576 FILLER_28_382
*1577 FILLER_28_384
*1578 FILLER_28_387
*1579 FILLER_28_419
*1580 FILLER_28_427
*1581 FILLER_28_429
*1582 FILLER_28_53
*1583 FILLER_28_55
*1584 FILLER_28_64
*1585 FILLER_28_72
*1586 FILLER_28_74
*1587 FILLER_28_87
*1588 FILLER_29_105
*1589 FILLER_29_121
*1590 FILLER_29_133
*1591 FILLER_29_137
*1592 FILLER_29_139
*1593 FILLER_29_142
*1594 FILLER_29_158
*1595 FILLER_29_166
*1596 FILLER_29_170
*1597 FILLER_29_172
*1598 FILLER_29_2
*1599 FILLER_29_204
*1600 FILLER_29_208
*1601 FILLER_29_212
*1602 FILLER_29_228
*1603 FILLER_29_282
*1604 FILLER_29_290
*1605 FILLER_29_292
*1606 FILLER_29_297
*1607 FILLER_29_332
*1608 FILLER_29_34
*1609 FILLER_29_340
*1610 FILLER_29_345
*1611 FILLER_29_349
*1612 FILLER_29_352
*1613 FILLER_29_368
*1614 FILLER_29_376
*1615 FILLER_29_412
*1616 FILLER_29_422
*1617 FILLER_29_77
*1618 FILLER_29_88
*1619 FILLER_29_92
*1620 FILLER_29_94
*1621 FILLER_2_107
*1622 FILLER_2_127
*1623 FILLER_2_141
*1624 FILLER_2_149
*1625 FILLER_2_165
*1626 FILLER_2_167
*1627 FILLER_2_172
*1628 FILLER_2_174
*1629 FILLER_2_177
*1630 FILLER_2_2
*1631 FILLER_2_203
*1632 FILLER_2_235
*1633 FILLER_2_243
*1634 FILLER_2_247
*1635 FILLER_2_255
*1636 FILLER_2_279
*1637 FILLER_2_295
*1638 FILLER_2_303
*1639 FILLER_2_308
*1640 FILLER_2_313
*1641 FILLER_2_34
*1642 FILLER_2_37
*1643 FILLER_2_373
*1644 FILLER_2_39
*1645 FILLER_2_391
*1646 FILLER_2_423
*1647 FILLER_2_427
*1648 FILLER_2_429
*1649 FILLER_2_64
*1650 FILLER_2_70
*1651 FILLER_2_74
*1652 FILLER_30_102
*1653 FILLER_30_104
*1654 FILLER_30_107
*1655 FILLER_30_115
*1656 FILLER_30_119
*1657 FILLER_30_121
*1658 FILLER_30_130
*1659 FILLER_30_138
*1660 FILLER_30_140
*1661 FILLER_30_177
*1662 FILLER_30_181
*1663 FILLER_30_192
*1664 FILLER_30_2
*1665 FILLER_30_230
*1666 FILLER_30_238
*1667 FILLER_30_242
*1668 FILLER_30_244
*1669 FILLER_30_247
*1670 FILLER_30_263
*1671 FILLER_30_34
*1672 FILLER_30_342
*1673 FILLER_30_366
*1674 FILLER_30_37
*1675 FILLER_30_374
*1676 FILLER_30_384
*1677 FILLER_30_387
*1678 FILLER_30_419
*1679 FILLER_30_427
*1680 FILLER_30_429
*1681 FILLER_30_53
*1682 FILLER_30_61
*1683 FILLER_30_68
*1684 FILLER_30_72
*1685 FILLER_30_82
*1686 FILLER_30_98
*1687 FILLER_31_137
*1688 FILLER_31_139
*1689 FILLER_31_142
*1690 FILLER_31_197
*1691 FILLER_31_2
*1692 FILLER_31_205
*1693 FILLER_31_209
*1694 FILLER_31_212
*1695 FILLER_31_228
*1696 FILLER_31_278
*1697 FILLER_31_282
*1698 FILLER_31_286
*1699 FILLER_31_343
*1700 FILLER_31_345
*1701 FILLER_31_352
*1702 FILLER_31_385
*1703 FILLER_31_417
*1704 FILLER_31_419
*1705 FILLER_31_422
*1706 FILLER_31_66
*1707 FILLER_31_72
*1708 FILLER_31_74
*1709 FILLER_31_84
*1710 FILLER_31_92
*1711 FILLER_31_96
*1712 FILLER_32_103
*1713 FILLER_32_107
*1714 FILLER_32_126
*1715 FILLER_32_128
*1716 FILLER_32_166
*1717 FILLER_32_174
*1718 FILLER_32_177
*1719 FILLER_32_185
*1720 FILLER_32_2
*1721 FILLER_32_222
*1722 FILLER_32_224
*1723 FILLER_32_240
*1724 FILLER_32_244
*1725 FILLER_32_247
*1726 FILLER_32_255
*1727 FILLER_32_259
*1728 FILLER_32_317
*1729 FILLER_32_34
*1730 FILLER_32_37
*1731 FILLER_32_383
*1732 FILLER_32_387
*1733 FILLER_32_39
*1734 FILLER_32_419
*1735 FILLER_32_427
*1736 FILLER_32_429
*1737 FILLER_32_83
*1738 FILLER_32_89
*1739 FILLER_32_95
*1740 FILLER_33_131
*1741 FILLER_33_139
*1742 FILLER_33_148
*1743 FILLER_33_180
*1744 FILLER_33_196
*1745 FILLER_33_2
*1746 FILLER_33_204
*1747 FILLER_33_208
*1748 FILLER_33_212
*1749 FILLER_33_262
*1750 FILLER_33_264
*1751 FILLER_33_273
*1752 FILLER_33_277
*1753 FILLER_33_279
*1754 FILLER_33_282
*1755 FILLER_33_316
*1756 FILLER_33_335
*1757 FILLER_33_339
*1758 FILLER_33_341
*1759 FILLER_33_372
*1760 FILLER_33_376
*1761 FILLER_33_411
*1762 FILLER_33_419
*1763 FILLER_33_422
*1764 FILLER_34_107
*1765 FILLER_34_115
*1766 FILLER_34_119
*1767 FILLER_34_135
*1768 FILLER_34_163
*1769 FILLER_34_171
*1770 FILLER_34_177
*1771 FILLER_34_185
*1772 FILLER_34_2
*1773 FILLER_34_247
*1774 FILLER_34_263
*1775 FILLER_34_267
*1776 FILLER_34_303
*1777 FILLER_34_311
*1778 FILLER_34_333
*1779 FILLER_34_34
*1780 FILLER_34_365
*1781 FILLER_34_37
*1782 FILLER_34_381
*1783 FILLER_34_387
*1784 FILLER_34_403
*1785 FILLER_34_411
*1786 FILLER_34_415
*1787 FILLER_34_45
*1788 FILLER_34_64
*1789 FILLER_34_80
*1790 FILLER_34_88
*1791 FILLER_35_104
*1792 FILLER_35_2
*1793 FILLER_35_212
*1794 FILLER_35_216
*1795 FILLER_35_230
*1796 FILLER_35_268
*1797 FILLER_35_276
*1798 FILLER_35_282
*1799 FILLER_35_290
*1800 FILLER_35_294
*1801 FILLER_35_307
*1802 FILLER_35_323
*1803 FILLER_35_325
*1804 FILLER_35_332
*1805 FILLER_35_34
*1806 FILLER_35_340
*1807 FILLER_35_364
*1808 FILLER_35_396
*1809 FILLER_35_412
*1810 FILLER_35_422
*1811 FILLER_35_72
*1812 FILLER_36_104
*1813 FILLER_36_107
*1814 FILLER_36_115
*1815 FILLER_36_159
*1816 FILLER_36_177
*1817 FILLER_36_2
*1818 FILLER_36_228
*1819 FILLER_36_232
*1820 FILLER_36_247
*1821 FILLER_36_263
*1822 FILLER_36_267
*1823 FILLER_36_273
*1824 FILLER_36_289
*1825 FILLER_36_297
*1826 FILLER_36_304
*1827 FILLER_36_312
*1828 FILLER_36_314
*1829 FILLER_36_317
*1830 FILLER_36_34
*1831 FILLER_36_353
*1832 FILLER_36_37
*1833 FILLER_36_387
*1834 FILLER_36_419
*1835 FILLER_36_427
*1836 FILLER_36_429
*1837 FILLER_36_53
*1838 FILLER_36_57
*1839 FILLER_36_59
*1840 FILLER_36_68
*1841 FILLER_36_76
*1842 FILLER_36_80
*1843 FILLER_36_96
*1844 FILLER_37_113
*1845 FILLER_37_121
*1846 FILLER_37_139
*1847 FILLER_37_150
*1848 FILLER_37_175
*1849 FILLER_37_186
*1850 FILLER_37_2
*1851 FILLER_37_202
*1852 FILLER_37_237
*1853 FILLER_37_269
*1854 FILLER_37_277
*1855 FILLER_37_279
*1856 FILLER_37_282
*1857 FILLER_37_294
*1858 FILLER_37_310
*1859 FILLER_37_318
*1860 FILLER_37_327
*1861 FILLER_37_34
*1862 FILLER_37_343
*1863 FILLER_37_347
*1864 FILLER_37_349
*1865 FILLER_37_352
*1866 FILLER_37_416
*1867 FILLER_37_422
*1868 FILLER_37_72
*1869 FILLER_37_76
*1870 FILLER_37_78
*1871 FILLER_38_103
*1872 FILLER_38_107
*1873 FILLER_38_115
*1874 FILLER_38_169
*1875 FILLER_38_173
*1876 FILLER_38_2
*1877 FILLER_38_227
*1878 FILLER_38_235
*1879 FILLER_38_244
*1880 FILLER_38_255
*1881 FILLER_38_263
*1882 FILLER_38_265
*1883 FILLER_38_275
*1884 FILLER_38_279
*1885 FILLER_38_321
*1886 FILLER_38_34
*1887 FILLER_38_357
*1888 FILLER_38_37
*1889 FILLER_38_373
*1890 FILLER_38_381
*1891 FILLER_38_387
*1892 FILLER_38_419
*1893 FILLER_38_427
*1894 FILLER_38_429
*1895 FILLER_38_45
*1896 FILLER_38_47
*1897 FILLER_38_69
*1898 FILLER_38_85
*1899 FILLER_38_87
*1900 FILLER_39_117
*1901 FILLER_39_121
*1902 FILLER_39_123
*1903 FILLER_39_132
*1904 FILLER_39_142
*1905 FILLER_39_144
*1906 FILLER_39_165
*1907 FILLER_39_169
*1908 FILLER_39_171
*1909 FILLER_39_18
*1910 FILLER_39_180
*1911 FILLER_39_184
*1912 FILLER_39_186
*1913 FILLER_39_195
*1914 FILLER_39_2
*1915 FILLER_39_203
*1916 FILLER_39_207
*1917 FILLER_39_209
*1918 FILLER_39_212
*1919 FILLER_39_235
*1920 FILLER_39_26
*1921 FILLER_39_275
*1922 FILLER_39_292
*1923 FILLER_39_30
*1924 FILLER_39_308
*1925 FILLER_39_32
*1926 FILLER_39_341
*1927 FILLER_39_349
*1928 FILLER_39_352
*1929 FILLER_39_416
*1930 FILLER_39_422
*1931 FILLER_39_67
*1932 FILLER_39_69
*1933 FILLER_39_77
*1934 FILLER_39_81
*1935 FILLER_3_104
*1936 FILLER_3_106
*1937 FILLER_3_113
*1938 FILLER_3_129
*1939 FILLER_3_137
*1940 FILLER_3_139
*1941 FILLER_3_142
*1942 FILLER_3_174
*1943 FILLER_3_190
*1944 FILLER_3_194
*1945 FILLER_3_2
*1946 FILLER_3_212
*1947 FILLER_3_228
*1948 FILLER_3_236
*1949 FILLER_3_244
*1950 FILLER_3_266
*1951 FILLER_3_278
*1952 FILLER_3_282
*1953 FILLER_3_287
*1954 FILLER_3_289
*1955 FILLER_3_294
*1956 FILLER_3_300
*1957 FILLER_3_332
*1958 FILLER_3_34
*1959 FILLER_3_348
*1960 FILLER_3_352
*1961 FILLER_3_368
*1962 FILLER_3_376
*1963 FILLER_3_38
*1964 FILLER_3_386
*1965 FILLER_3_418
*1966 FILLER_3_422
*1967 FILLER_3_58
*1968 FILLER_3_66
*1969 FILLER_3_72
*1970 FILLER_40_107
*1971 FILLER_40_121
*1972 FILLER_40_125
*1973 FILLER_40_127
*1974 FILLER_40_133
*1975 FILLER_40_141
*1976 FILLER_40_145
*1977 FILLER_40_147
*1978 FILLER_40_156
*1979 FILLER_40_172
*1980 FILLER_40_174
*1981 FILLER_40_177
*1982 FILLER_40_185
*1983 FILLER_40_2
*1984 FILLER_40_231
*1985 FILLER_40_233
*1986 FILLER_40_247
*1987 FILLER_40_263
*1988 FILLER_40_267
*1989 FILLER_40_273
*1990 FILLER_40_289
*1991 FILLER_40_293
*1992 FILLER_40_303
*1993 FILLER_40_311
*1994 FILLER_40_317
*1995 FILLER_40_321
*1996 FILLER_40_337
*1997 FILLER_40_34
*1998 FILLER_40_369
*1999 FILLER_40_37
*2000 FILLER_40_387
*2001 FILLER_40_419
*2002 FILLER_40_427
*2003 FILLER_40_429
*2004 FILLER_40_53
*2005 FILLER_40_61
*2006 FILLER_40_65
*2007 FILLER_40_89
*2008 FILLER_41_103
*2009 FILLER_41_142
*2010 FILLER_41_158
*2011 FILLER_41_166
*2012 FILLER_41_170
*2013 FILLER_41_172
*2014 FILLER_41_193
*2015 FILLER_41_2
*2016 FILLER_41_202
*2017 FILLER_41_212
*2018 FILLER_41_220
*2019 FILLER_41_224
*2020 FILLER_41_231
*2021 FILLER_41_235
*2022 FILLER_41_251
*2023 FILLER_41_267
*2024 FILLER_41_271
*2025 FILLER_41_278
*2026 FILLER_41_290
*2027 FILLER_41_298
*2028 FILLER_41_313
*2029 FILLER_41_325
*2030 FILLER_41_34
*2031 FILLER_41_341
*2032 FILLER_41_349
*2033 FILLER_41_352
*2034 FILLER_41_416
*2035 FILLER_41_422
*2036 FILLER_41_50
*2037 FILLER_41_66
*2038 FILLER_41_72
*2039 FILLER_41_74
*2040 FILLER_41_99
*2041 FILLER_42_103
*2042 FILLER_42_107
*2043 FILLER_42_123
*2044 FILLER_42_131
*2045 FILLER_42_168
*2046 FILLER_42_172
*2047 FILLER_42_174
*2048 FILLER_42_177
*2049 FILLER_42_187
*2050 FILLER_42_194
*2051 FILLER_42_2
*2052 FILLER_42_226
*2053 FILLER_42_234
*2054 FILLER_42_247
*2055 FILLER_42_249
*2056 FILLER_42_256
*2057 FILLER_42_264
*2058 FILLER_42_268
*2059 FILLER_42_286
*2060 FILLER_42_290
*2061 FILLER_42_292
*2062 FILLER_42_305
*2063 FILLER_42_34
*2064 FILLER_42_351
*2065 FILLER_42_383
*2066 FILLER_42_387
*2067 FILLER_42_419
*2068 FILLER_42_427
*2069 FILLER_42_429
*2070 FILLER_42_71
*2071 FILLER_42_75
*2072 FILLER_42_87
*2073 FILLER_43_100
*2074 FILLER_43_139
*2075 FILLER_43_142
*2076 FILLER_43_146
*2077 FILLER_43_154
*2078 FILLER_43_164
*2079 FILLER_43_168
*2080 FILLER_43_170
*2081 FILLER_43_176
*2082 FILLER_43_184
*2083 FILLER_43_193
*2084 FILLER_43_2
*2085 FILLER_43_207
*2086 FILLER_43_209
*2087 FILLER_43_212
*2088 FILLER_43_244
*2089 FILLER_43_257
*2090 FILLER_43_273
*2091 FILLER_43_290
*2092 FILLER_43_298
*2093 FILLER_43_300
*2094 FILLER_43_313
*2095 FILLER_43_345
*2096 FILLER_43_349
*2097 FILLER_43_352
*2098 FILLER_43_416
*2099 FILLER_43_422
*2100 FILLER_43_66
*2101 FILLER_43_72
*2102 FILLER_43_88
*2103 FILLER_43_96
*2104 FILLER_44_115
*2105 FILLER_44_123
*2106 FILLER_44_125
*2107 FILLER_44_131
*2108 FILLER_44_147
*2109 FILLER_44_156
*2110 FILLER_44_164
*2111 FILLER_44_182
*2112 FILLER_44_190
*2113 FILLER_44_192
*2114 FILLER_44_2
*2115 FILLER_44_238
*2116 FILLER_44_242
*2117 FILLER_44_244
*2118 FILLER_44_292
*2119 FILLER_44_308
*2120 FILLER_44_312
*2121 FILLER_44_314
*2122 FILLER_44_317
*2123 FILLER_44_34
*2124 FILLER_44_37
*2125 FILLER_44_381
*2126 FILLER_44_387
*2127 FILLER_44_419
*2128 FILLER_44_427
*2129 FILLER_44_429
*2130 FILLER_44_45
*2131 FILLER_44_49
*2132 FILLER_44_65
*2133 FILLER_44_83
*2134 FILLER_44_99
*2135 FILLER_45_136
*2136 FILLER_45_142
*2137 FILLER_45_158
*2138 FILLER_45_164
*2139 FILLER_45_196
*2140 FILLER_45_2
*2141 FILLER_45_200
*2142 FILLER_45_202
*2143 FILLER_45_207
*2144 FILLER_45_209
*2145 FILLER_45_212
*2146 FILLER_45_244
*2147 FILLER_45_252
*2148 FILLER_45_268
*2149 FILLER_45_276
*2150 FILLER_45_316
*2151 FILLER_45_34
*2152 FILLER_45_348
*2153 FILLER_45_352
*2154 FILLER_45_416
*2155 FILLER_45_422
*2156 FILLER_45_69
*2157 FILLER_45_84
*2158 FILLER_46_107
*2159 FILLER_46_139
*2160 FILLER_46_143
*2161 FILLER_46_152
*2162 FILLER_46_154
*2163 FILLER_46_177
*2164 FILLER_46_193
*2165 FILLER_46_2
*2166 FILLER_46_201
*2167 FILLER_46_205
*2168 FILLER_46_232
*2169 FILLER_46_240
*2170 FILLER_46_244
*2171 FILLER_46_247
*2172 FILLER_46_311
*2173 FILLER_46_317
*2174 FILLER_46_34
*2175 FILLER_46_37
*2176 FILLER_46_381
*2177 FILLER_46_387
*2178 FILLER_46_419
*2179 FILLER_46_427
*2180 FILLER_46_429
*2181 FILLER_46_53
*2182 FILLER_46_89
*2183 FILLER_47_121
*2184 FILLER_47_129
*2185 FILLER_47_133
*2186 FILLER_47_173
*2187 FILLER_47_175
*2188 FILLER_47_2
*2189 FILLER_47_212
*2190 FILLER_47_276
*2191 FILLER_47_282
*2192 FILLER_47_346
*2193 FILLER_47_352
*2194 FILLER_47_416
*2195 FILLER_47_422
*2196 FILLER_47_66
*2197 FILLER_47_72
*2198 FILLER_47_97
*2199 FILLER_48_101
*2200 FILLER_48_107
*2201 FILLER_48_109
*2202 FILLER_48_144
*2203 FILLER_48_146
*2204 FILLER_48_152
*2205 FILLER_48_154
*2206 FILLER_48_167
*2207 FILLER_48_177
*2208 FILLER_48_2
*2209 FILLER_48_241
*2210 FILLER_48_247
*2211 FILLER_48_311
*2212 FILLER_48_317
*2213 FILLER_48_34
*2214 FILLER_48_37
*2215 FILLER_48_381
*2216 FILLER_48_387
*2217 FILLER_48_419
*2218 FILLER_48_427
*2219 FILLER_48_429
*2220 FILLER_48_53
*2221 FILLER_48_61
*2222 FILLER_48_77
*2223 FILLER_48_93
*2224 FILLER_49_104
*2225 FILLER_49_108
*2226 FILLER_49_118
*2227 FILLER_49_134
*2228 FILLER_49_138
*2229 FILLER_49_142
*2230 FILLER_49_2
*2231 FILLER_49_206
*2232 FILLER_49_212
*2233 FILLER_49_276
*2234 FILLER_49_282
*2235 FILLER_49_346
*2236 FILLER_49_352
*2237 FILLER_49_416
*2238 FILLER_49_422
*2239 FILLER_49_66
*2240 FILLER_49_72
*2241 FILLER_4_107
*2242 FILLER_4_117
*2243 FILLER_4_149
*2244 FILLER_4_165
*2245 FILLER_4_173
*2246 FILLER_4_177
*2247 FILLER_4_193
*2248 FILLER_4_195
*2249 FILLER_4_214
*2250 FILLER_4_22
*2251 FILLER_4_230
*2252 FILLER_4_234
*2253 FILLER_4_243
*2254 FILLER_4_251
*2255 FILLER_4_267
*2256 FILLER_4_30
*2257 FILLER_4_303
*2258 FILLER_4_311
*2259 FILLER_4_317
*2260 FILLER_4_34
*2261 FILLER_4_349
*2262 FILLER_4_365
*2263 FILLER_4_37
*2264 FILLER_4_373
*2265 FILLER_4_377
*2266 FILLER_4_382
*2267 FILLER_4_384
*2268 FILLER_4_39
*2269 FILLER_4_391
*2270 FILLER_4_423
*2271 FILLER_4_427
*2272 FILLER_4_429
*2273 FILLER_4_58
*2274 FILLER_4_6
*2275 FILLER_4_60
*2276 FILLER_4_65
*2277 FILLER_4_78
*2278 FILLER_4_80
*2279 FILLER_4_85
*2280 FILLER_4_94
*2281 FILLER_4_96
*2282 FILLER_50_101
*2283 FILLER_50_107
*2284 FILLER_50_171
*2285 FILLER_50_177
*2286 FILLER_50_2
*2287 FILLER_50_241
*2288 FILLER_50_247
*2289 FILLER_50_311
*2290 FILLER_50_317
*2291 FILLER_50_34
*2292 FILLER_50_37
*2293 FILLER_50_381
*2294 FILLER_50_387
*2295 FILLER_50_419
*2296 FILLER_50_427
*2297 FILLER_50_429
*2298 FILLER_51_136
*2299 FILLER_51_142
*2300 FILLER_51_2
*2301 FILLER_51_206
*2302 FILLER_51_212
*2303 FILLER_51_276
*2304 FILLER_51_282
*2305 FILLER_51_346
*2306 FILLER_51_352
*2307 FILLER_51_416
*2308 FILLER_51_422
*2309 FILLER_51_66
*2310 FILLER_51_72
*2311 FILLER_52_101
*2312 FILLER_52_107
*2313 FILLER_52_171
*2314 FILLER_52_177
*2315 FILLER_52_2
*2316 FILLER_52_241
*2317 FILLER_52_247
*2318 FILLER_52_311
*2319 FILLER_52_317
*2320 FILLER_52_34
*2321 FILLER_52_37
*2322 FILLER_52_381
*2323 FILLER_52_387
*2324 FILLER_52_419
*2325 FILLER_52_427
*2326 FILLER_52_429
*2327 FILLER_53_136
*2328 FILLER_53_142
*2329 FILLER_53_2
*2330 FILLER_53_206
*2331 FILLER_53_212
*2332 FILLER_53_276
*2333 FILLER_53_282
*2334 FILLER_53_346
*2335 FILLER_53_352
*2336 FILLER_53_416
*2337 FILLER_53_422
*2338 FILLER_53_66
*2339 FILLER_53_72
*2340 FILLER_54_101
*2341 FILLER_54_107
*2342 FILLER_54_171
*2343 FILLER_54_177
*2344 FILLER_54_2
*2345 FILLER_54_241
*2346 FILLER_54_247
*2347 FILLER_54_311
*2348 FILLER_54_317
*2349 FILLER_54_34
*2350 FILLER_54_37
*2351 FILLER_54_381
*2352 FILLER_54_387
*2353 FILLER_54_419
*2354 FILLER_54_427
*2355 FILLER_54_429
*2356 FILLER_55_136
*2357 FILLER_55_142
*2358 FILLER_55_2
*2359 FILLER_55_206
*2360 FILLER_55_212
*2361 FILLER_55_276
*2362 FILLER_55_282
*2363 FILLER_55_346
*2364 FILLER_55_352
*2365 FILLER_55_416
*2366 FILLER_55_422
*2367 FILLER_55_66
*2368 FILLER_55_72
*2369 FILLER_56_101
*2370 FILLER_56_107
*2371 FILLER_56_171
*2372 FILLER_56_177
*2373 FILLER_56_2
*2374 FILLER_56_241
*2375 FILLER_56_247
*2376 FILLER_56_311
*2377 FILLER_56_317
*2378 FILLER_56_34
*2379 FILLER_56_37
*2380 FILLER_56_381
*2381 FILLER_56_387
*2382 FILLER_56_419
*2383 FILLER_56_427
*2384 FILLER_56_429
*2385 FILLER_57_136
*2386 FILLER_57_142
*2387 FILLER_57_2
*2388 FILLER_57_206
*2389 FILLER_57_212
*2390 FILLER_57_276
*2391 FILLER_57_282
*2392 FILLER_57_346
*2393 FILLER_57_352
*2394 FILLER_57_416
*2395 FILLER_57_422
*2396 FILLER_57_66
*2397 FILLER_57_72
*2398 FILLER_58_101
*2399 FILLER_58_107
*2400 FILLER_58_171
*2401 FILLER_58_177
*2402 FILLER_58_2
*2403 FILLER_58_241
*2404 FILLER_58_247
*2405 FILLER_58_311
*2406 FILLER_58_317
*2407 FILLER_58_34
*2408 FILLER_58_37
*2409 FILLER_58_381
*2410 FILLER_58_387
*2411 FILLER_58_419
*2412 FILLER_58_427
*2413 FILLER_58_429
*2414 FILLER_59_136
*2415 FILLER_59_142
*2416 FILLER_59_2
*2417 FILLER_59_206
*2418 FILLER_59_212
*2419 FILLER_59_276
*2420 FILLER_59_282
*2421 FILLER_59_346
*2422 FILLER_59_352
*2423 FILLER_59_416
*2424 FILLER_59_422
*2425 FILLER_59_66
*2426 FILLER_59_72
*2427 FILLER_5_122
*2428 FILLER_5_138
*2429 FILLER_5_142
*2430 FILLER_5_174
*2431 FILLER_5_190
*2432 FILLER_5_198
*2433 FILLER_5_2
*2434 FILLER_5_212
*2435 FILLER_5_220
*2436 FILLER_5_224
*2437 FILLER_5_242
*2438 FILLER_5_258
*2439 FILLER_5_282
*2440 FILLER_5_290
*2441 FILLER_5_292
*2442 FILLER_5_297
*2443 FILLER_5_303
*2444 FILLER_5_309
*2445 FILLER_5_34
*2446 FILLER_5_372
*2447 FILLER_5_390
*2448 FILLER_5_406
*2449 FILLER_5_414
*2450 FILLER_5_418
*2451 FILLER_5_422
*2452 FILLER_60_104
*2453 FILLER_60_138
*2454 FILLER_60_154
*2455 FILLER_60_158
*2456 FILLER_60_160
*2457 FILLER_60_169
*2458 FILLER_60_17
*2459 FILLER_60_172
*2460 FILLER_60_2
*2461 FILLER_60_206
*2462 FILLER_60_240
*2463 FILLER_60_244
*2464 FILLER_60_253
*2465 FILLER_60_269
*2466 FILLER_60_271
*2467 FILLER_60_274
*2468 FILLER_60_308
*2469 FILLER_60_33
*2470 FILLER_60_342
*2471 FILLER_60_36
*2472 FILLER_60_376
*2473 FILLER_60_410
*2474 FILLER_60_426
*2475 FILLER_60_6
*2476 FILLER_60_70
*2477 FILLER_60_8
*2478 FILLER_6_102
*2479 FILLER_6_104
*2480 FILLER_6_107
*2481 FILLER_6_111
*2482 FILLER_6_125
*2483 FILLER_6_157
*2484 FILLER_6_173
*2485 FILLER_6_177
*2486 FILLER_6_193
*2487 FILLER_6_197
*2488 FILLER_6_2
*2489 FILLER_6_215
*2490 FILLER_6_223
*2491 FILLER_6_237
*2492 FILLER_6_247
*2493 FILLER_6_263
*2494 FILLER_6_265
*2495 FILLER_6_300
*2496 FILLER_6_306
*2497 FILLER_6_310
*2498 FILLER_6_317
*2499 FILLER_6_331
*2500 FILLER_6_34
*2501 FILLER_6_340
*2502 FILLER_6_345
*2503 FILLER_6_350
*2504 FILLER_6_355
*2505 FILLER_6_364
*2506 FILLER_6_369
*2507 FILLER_6_37
*2508 FILLER_6_374
*2509 FILLER_6_378
*2510 FILLER_6_383
*2511 FILLER_6_387
*2512 FILLER_6_403
*2513 FILLER_6_69
*2514 FILLER_6_73
*2515 FILLER_6_78
*2516 FILLER_6_94
*2517 FILLER_7_104
*2518 FILLER_7_112
*2519 FILLER_7_128
*2520 FILLER_7_136
*2521 FILLER_7_142
*2522 FILLER_7_174
*2523 FILLER_7_190
*2524 FILLER_7_2
*2525 FILLER_7_212
*2526 FILLER_7_220
*2527 FILLER_7_240
*2528 FILLER_7_260
*2529 FILLER_7_276
*2530 FILLER_7_282
*2531 FILLER_7_290
*2532 FILLER_7_294
*2533 FILLER_7_303
*2534 FILLER_7_335
*2535 FILLER_7_343
*2536 FILLER_7_347
*2537 FILLER_7_349
*2538 FILLER_7_352
*2539 FILLER_7_360
*2540 FILLER_7_395
*2541 FILLER_7_399
*2542 FILLER_7_401
*2543 FILLER_7_411
*2544 FILLER_7_419
*2545 FILLER_7_422
*2546 FILLER_7_66
*2547 FILLER_7_72
*2548 FILLER_8_101
*2549 FILLER_8_107
*2550 FILLER_8_115
*2551 FILLER_8_119
*2552 FILLER_8_136
*2553 FILLER_8_138
*2554 FILLER_8_143
*2555 FILLER_8_177
*2556 FILLER_8_193
*2557 FILLER_8_2
*2558 FILLER_8_206
*2559 FILLER_8_214
*2560 FILLER_8_218
*2561 FILLER_8_235
*2562 FILLER_8_237
*2563 FILLER_8_242
*2564 FILLER_8_244
*2565 FILLER_8_251
*2566 FILLER_8_267
*2567 FILLER_8_271
*2568 FILLER_8_287
*2569 FILLER_8_303
*2570 FILLER_8_305
*2571 FILLER_8_310
*2572 FILLER_8_314
*2573 FILLER_8_317
*2574 FILLER_8_34
*2575 FILLER_8_353
*2576 FILLER_8_361
*2577 FILLER_8_366
*2578 FILLER_8_37
*2579 FILLER_8_374
*2580 FILLER_8_378
*2581 FILLER_8_380
*2582 FILLER_8_421
*2583 FILLER_8_429
*2584 FILLER_9_100
*2585 FILLER_9_105
*2586 FILLER_9_121
*2587 FILLER_9_123
*2588 FILLER_9_154
*2589 FILLER_9_156
*2590 FILLER_9_161
*2591 FILLER_9_166
*2592 FILLER_9_182
*2593 FILLER_9_190
*2594 FILLER_9_192
*2595 FILLER_9_2
*2596 FILLER_9_205
*2597 FILLER_9_209
*2598 FILLER_9_212
*2599 FILLER_9_228
*2600 FILLER_9_230
*2601 FILLER_9_269
*2602 FILLER_9_277
*2603 FILLER_9_279
*2604 FILLER_9_356
*2605 FILLER_9_372
*2606 FILLER_9_380
*2607 FILLER_9_384
*2608 FILLER_9_426
*2609 FILLER_9_66
*2610 FILLER_9_72
*2611 PHY_EDGE_ROW_0_Left_61
*2612 PHY_EDGE_ROW_0_Right_0
*2613 PHY_EDGE_ROW_10_Left_71
*2614 PHY_EDGE_ROW_10_Right_10
*2615 PHY_EDGE_ROW_11_Left_72
*2616 PHY_EDGE_ROW_11_Right_11
*2617 PHY_EDGE_ROW_12_Left_73
*2618 PHY_EDGE_ROW_12_Right_12
*2619 PHY_EDGE_ROW_13_Left_74
*2620 PHY_EDGE_ROW_13_Right_13
*2621 PHY_EDGE_ROW_14_Left_75
*2622 PHY_EDGE_ROW_14_Right_14
*2623 PHY_EDGE_ROW_15_Left_76
*2624 PHY_EDGE_ROW_15_Right_15
*2625 PHY_EDGE_ROW_16_Left_77
*2626 PHY_EDGE_ROW_16_Right_16
*2627 PHY_EDGE_ROW_17_Left_78
*2628 PHY_EDGE_ROW_17_Right_17
*2629 PHY_EDGE_ROW_18_Left_79
*2630 PHY_EDGE_ROW_18_Right_18
*2631 PHY_EDGE_ROW_19_Left_80
*2632 PHY_EDGE_ROW_19_Right_19
*2633 PHY_EDGE_ROW_1_Left_62
*2634 PHY_EDGE_ROW_1_Right_1
*2635 PHY_EDGE_ROW_20_Left_81
*2636 PHY_EDGE_ROW_20_Right_20
*2637 PHY_EDGE_ROW_21_Left_82
*2638 PHY_EDGE_ROW_21_Right_21
*2639 PHY_EDGE_ROW_22_Left_83
*2640 PHY_EDGE_ROW_22_Right_22
*2641 PHY_EDGE_ROW_23_Left_84
*2642 PHY_EDGE_ROW_23_Right_23
*2643 PHY_EDGE_ROW_24_Left_85
*2644 PHY_EDGE_ROW_24_Right_24
*2645 PHY_EDGE_ROW_25_Left_86
*2646 PHY_EDGE_ROW_25_Right_25
*2647 PHY_EDGE_ROW_26_Left_87
*2648 PHY_EDGE_ROW_26_Right_26
*2649 PHY_EDGE_ROW_27_Left_88
*2650 PHY_EDGE_ROW_27_Right_27
*2651 PHY_EDGE_ROW_28_Left_89
*2652 PHY_EDGE_ROW_28_Right_28
*2653 PHY_EDGE_ROW_29_Left_90
*2654 PHY_EDGE_ROW_29_Right_29
*2655 PHY_EDGE_ROW_2_Left_63
*2656 PHY_EDGE_ROW_2_Right_2
*2657 PHY_EDGE_ROW_30_Left_91
*2658 PHY_EDGE_ROW_30_Right_30
*2659 PHY_EDGE_ROW_31_Left_92
*2660 PHY_EDGE_ROW_31_Right_31
*2661 PHY_EDGE_ROW_32_Left_93
*2662 PHY_EDGE_ROW_32_Right_32
*2663 PHY_EDGE_ROW_33_Left_94
*2664 PHY_EDGE_ROW_33_Right_33
*2665 PHY_EDGE_ROW_34_Left_95
*2666 PHY_EDGE_ROW_34_Right_34
*2667 PHY_EDGE_ROW_35_Left_96
*2668 PHY_EDGE_ROW_35_Right_35
*2669 PHY_EDGE_ROW_36_Left_97
*2670 PHY_EDGE_ROW_36_Right_36
*2671 PHY_EDGE_ROW_37_Left_98
*2672 PHY_EDGE_ROW_37_Right_37
*2673 PHY_EDGE_ROW_38_Left_99
*2674 PHY_EDGE_ROW_38_Right_38
*2675 PHY_EDGE_ROW_39_Left_100
*2676 PHY_EDGE_ROW_39_Right_39
*2677 PHY_EDGE_ROW_3_Left_64
*2678 PHY_EDGE_ROW_3_Right_3
*2679 PHY_EDGE_ROW_40_Left_101
*2680 PHY_EDGE_ROW_40_Right_40
*2681 PHY_EDGE_ROW_41_Left_102
*2682 PHY_EDGE_ROW_41_Right_41
*2683 PHY_EDGE_ROW_42_Left_103
*2684 PHY_EDGE_ROW_42_Right_42
*2685 PHY_EDGE_ROW_43_Left_104
*2686 PHY_EDGE_ROW_43_Right_43
*2687 PHY_EDGE_ROW_44_Left_105
*2688 PHY_EDGE_ROW_44_Right_44
*2689 PHY_EDGE_ROW_45_Left_106
*2690 PHY_EDGE_ROW_45_Right_45
*2691 PHY_EDGE_ROW_46_Left_107
*2692 PHY_EDGE_ROW_46_Right_46
*2693 PHY_EDGE_ROW_47_Left_108
*2694 PHY_EDGE_ROW_47_Right_47
*2695 PHY_EDGE_ROW_48_Left_109
*2696 PHY_EDGE_ROW_48_Right_48
*2697 PHY_EDGE_ROW_49_Left_110
*2698 PHY_EDGE_ROW_49_Right_49
*2699 PHY_EDGE_ROW_4_Left_65
*2700 PHY_EDGE_ROW_4_Right_4
*2701 PHY_EDGE_ROW_50_Left_111
*2702 PHY_EDGE_ROW_50_Right_50
*2703 PHY_EDGE_ROW_51_Left_112
*2704 PHY_EDGE_ROW_51_Right_51
*2705 PHY_EDGE_ROW_52_Left_113
*2706 PHY_EDGE_ROW_52_Right_52
*2707 PHY_EDGE_ROW_53_Left_114
*2708 PHY_EDGE_ROW_53_Right_53
*2709 PHY_EDGE_ROW_54_Left_115
*2710 PHY_EDGE_ROW_54_Right_54
*2711 PHY_EDGE_ROW_55_Left_116
*2712 PHY_EDGE_ROW_55_Right_55
*2713 PHY_EDGE_ROW_56_Left_117
*2714 PHY_EDGE_ROW_56_Right_56
*2715 PHY_EDGE_ROW_57_Left_118
*2716 PHY_EDGE_ROW_57_Right_57
*2717 PHY_EDGE_ROW_58_Left_119
*2718 PHY_EDGE_ROW_58_Right_58
*2719 PHY_EDGE_ROW_59_Left_120
*2720 PHY_EDGE_ROW_59_Right_59
*2721 PHY_EDGE_ROW_5_Left_66
*2722 PHY_EDGE_ROW_5_Right_5
*2723 PHY_EDGE_ROW_60_Left_121
*2724 PHY_EDGE_ROW_60_Right_60
*2725 PHY_EDGE_ROW_6_Left_67
*2726 PHY_EDGE_ROW_6_Right_6
*2727 PHY_EDGE_ROW_7_Left_68
*2728 PHY_EDGE_ROW_7_Right_7
*2729 PHY_EDGE_ROW_8_Left_69
*2730 PHY_EDGE_ROW_8_Right_8
*2731 PHY_EDGE_ROW_9_Left_70
*2732 PHY_EDGE_ROW_9_Right_9
*2733 TAP_TAPCELL_ROW_0_122
*2734 TAP_TAPCELL_ROW_0_123
*2735 TAP_TAPCELL_ROW_0_124
*2736 TAP_TAPCELL_ROW_0_125
*2737 TAP_TAPCELL_ROW_0_126
*2738 TAP_TAPCELL_ROW_0_127
*2739 TAP_TAPCELL_ROW_0_128
*2740 TAP_TAPCELL_ROW_0_129
*2741 TAP_TAPCELL_ROW_0_130
*2742 TAP_TAPCELL_ROW_0_131
*2743 TAP_TAPCELL_ROW_0_132
*2744 TAP_TAPCELL_ROW_0_133
*2745 TAP_TAPCELL_ROW_10_188
*2746 TAP_TAPCELL_ROW_10_189
*2747 TAP_TAPCELL_ROW_10_190
*2748 TAP_TAPCELL_ROW_10_191
*2749 TAP_TAPCELL_ROW_10_192
*2750 TAP_TAPCELL_ROW_10_193
*2751 TAP_TAPCELL_ROW_11_194
*2752 TAP_TAPCELL_ROW_11_195
*2753 TAP_TAPCELL_ROW_11_196
*2754 TAP_TAPCELL_ROW_11_197
*2755 TAP_TAPCELL_ROW_11_198
*2756 TAP_TAPCELL_ROW_11_199
*2757 TAP_TAPCELL_ROW_12_200
*2758 TAP_TAPCELL_ROW_12_201
*2759 TAP_TAPCELL_ROW_12_202
*2760 TAP_TAPCELL_ROW_12_203
*2761 TAP_TAPCELL_ROW_12_204
*2762 TAP_TAPCELL_ROW_12_205
*2763 TAP_TAPCELL_ROW_13_206
*2764 TAP_TAPCELL_ROW_13_207
*2765 TAP_TAPCELL_ROW_13_208
*2766 TAP_TAPCELL_ROW_13_209
*2767 TAP_TAPCELL_ROW_13_210
*2768 TAP_TAPCELL_ROW_13_211
*2769 TAP_TAPCELL_ROW_14_212
*2770 TAP_TAPCELL_ROW_14_213
*2771 TAP_TAPCELL_ROW_14_214
*2772 TAP_TAPCELL_ROW_14_215
*2773 TAP_TAPCELL_ROW_14_216
*2774 TAP_TAPCELL_ROW_14_217
*2775 TAP_TAPCELL_ROW_15_218
*2776 TAP_TAPCELL_ROW_15_219
*2777 TAP_TAPCELL_ROW_15_220
*2778 TAP_TAPCELL_ROW_15_221
*2779 TAP_TAPCELL_ROW_15_222
*2780 TAP_TAPCELL_ROW_15_223
*2781 TAP_TAPCELL_ROW_16_224
*2782 TAP_TAPCELL_ROW_16_225
*2783 TAP_TAPCELL_ROW_16_226
*2784 TAP_TAPCELL_ROW_16_227
*2785 TAP_TAPCELL_ROW_16_228
*2786 TAP_TAPCELL_ROW_16_229
*2787 TAP_TAPCELL_ROW_17_230
*2788 TAP_TAPCELL_ROW_17_231
*2789 TAP_TAPCELL_ROW_17_232
*2790 TAP_TAPCELL_ROW_17_233
*2791 TAP_TAPCELL_ROW_17_234
*2792 TAP_TAPCELL_ROW_17_235
*2793 TAP_TAPCELL_ROW_18_236
*2794 TAP_TAPCELL_ROW_18_237
*2795 TAP_TAPCELL_ROW_18_238
*2796 TAP_TAPCELL_ROW_18_239
*2797 TAP_TAPCELL_ROW_18_240
*2798 TAP_TAPCELL_ROW_18_241
*2799 TAP_TAPCELL_ROW_19_242
*2800 TAP_TAPCELL_ROW_19_243
*2801 TAP_TAPCELL_ROW_19_244
*2802 TAP_TAPCELL_ROW_19_245
*2803 TAP_TAPCELL_ROW_19_246
*2804 TAP_TAPCELL_ROW_19_247
*2805 TAP_TAPCELL_ROW_1_134
*2806 TAP_TAPCELL_ROW_1_135
*2807 TAP_TAPCELL_ROW_1_136
*2808 TAP_TAPCELL_ROW_1_137
*2809 TAP_TAPCELL_ROW_1_138
*2810 TAP_TAPCELL_ROW_1_139
*2811 TAP_TAPCELL_ROW_20_248
*2812 TAP_TAPCELL_ROW_20_249
*2813 TAP_TAPCELL_ROW_20_250
*2814 TAP_TAPCELL_ROW_20_251
*2815 TAP_TAPCELL_ROW_20_252
*2816 TAP_TAPCELL_ROW_20_253
*2817 TAP_TAPCELL_ROW_21_254
*2818 TAP_TAPCELL_ROW_21_255
*2819 TAP_TAPCELL_ROW_21_256
*2820 TAP_TAPCELL_ROW_21_257
*2821 TAP_TAPCELL_ROW_21_258
*2822 TAP_TAPCELL_ROW_21_259
*2823 TAP_TAPCELL_ROW_22_260
*2824 TAP_TAPCELL_ROW_22_261
*2825 TAP_TAPCELL_ROW_22_262
*2826 TAP_TAPCELL_ROW_22_263
*2827 TAP_TAPCELL_ROW_22_264
*2828 TAP_TAPCELL_ROW_22_265
*2829 TAP_TAPCELL_ROW_23_266
*2830 TAP_TAPCELL_ROW_23_267
*2831 TAP_TAPCELL_ROW_23_268
*2832 TAP_TAPCELL_ROW_23_269
*2833 TAP_TAPCELL_ROW_23_270
*2834 TAP_TAPCELL_ROW_23_271
*2835 TAP_TAPCELL_ROW_24_272
*2836 TAP_TAPCELL_ROW_24_273
*2837 TAP_TAPCELL_ROW_24_274
*2838 TAP_TAPCELL_ROW_24_275
*2839 TAP_TAPCELL_ROW_24_276
*2840 TAP_TAPCELL_ROW_24_277
*2841 TAP_TAPCELL_ROW_25_278
*2842 TAP_TAPCELL_ROW_25_279
*2843 TAP_TAPCELL_ROW_25_280
*2844 TAP_TAPCELL_ROW_25_281
*2845 TAP_TAPCELL_ROW_25_282
*2846 TAP_TAPCELL_ROW_25_283
*2847 TAP_TAPCELL_ROW_26_284
*2848 TAP_TAPCELL_ROW_26_285
*2849 TAP_TAPCELL_ROW_26_286
*2850 TAP_TAPCELL_ROW_26_287
*2851 TAP_TAPCELL_ROW_26_288
*2852 TAP_TAPCELL_ROW_26_289
*2853 TAP_TAPCELL_ROW_27_290
*2854 TAP_TAPCELL_ROW_27_291
*2855 TAP_TAPCELL_ROW_27_292
*2856 TAP_TAPCELL_ROW_27_293
*2857 TAP_TAPCELL_ROW_27_294
*2858 TAP_TAPCELL_ROW_27_295
*2859 TAP_TAPCELL_ROW_28_296
*2860 TAP_TAPCELL_ROW_28_297
*2861 TAP_TAPCELL_ROW_28_298
*2862 TAP_TAPCELL_ROW_28_299
*2863 TAP_TAPCELL_ROW_28_300
*2864 TAP_TAPCELL_ROW_28_301
*2865 TAP_TAPCELL_ROW_29_302
*2866 TAP_TAPCELL_ROW_29_303
*2867 TAP_TAPCELL_ROW_29_304
*2868 TAP_TAPCELL_ROW_29_305
*2869 TAP_TAPCELL_ROW_29_306
*2870 TAP_TAPCELL_ROW_29_307
*2871 TAP_TAPCELL_ROW_2_140
*2872 TAP_TAPCELL_ROW_2_141
*2873 TAP_TAPCELL_ROW_2_142
*2874 TAP_TAPCELL_ROW_2_143
*2875 TAP_TAPCELL_ROW_2_144
*2876 TAP_TAPCELL_ROW_2_145
*2877 TAP_TAPCELL_ROW_30_308
*2878 TAP_TAPCELL_ROW_30_309
*2879 TAP_TAPCELL_ROW_30_310
*2880 TAP_TAPCELL_ROW_30_311
*2881 TAP_TAPCELL_ROW_30_312
*2882 TAP_TAPCELL_ROW_30_313
*2883 TAP_TAPCELL_ROW_31_314
*2884 TAP_TAPCELL_ROW_31_315
*2885 TAP_TAPCELL_ROW_31_316
*2886 TAP_TAPCELL_ROW_31_317
*2887 TAP_TAPCELL_ROW_31_318
*2888 TAP_TAPCELL_ROW_31_319
*2889 TAP_TAPCELL_ROW_32_320
*2890 TAP_TAPCELL_ROW_32_321
*2891 TAP_TAPCELL_ROW_32_322
*2892 TAP_TAPCELL_ROW_32_323
*2893 TAP_TAPCELL_ROW_32_324
*2894 TAP_TAPCELL_ROW_32_325
*2895 TAP_TAPCELL_ROW_33_326
*2896 TAP_TAPCELL_ROW_33_327
*2897 TAP_TAPCELL_ROW_33_328
*2898 TAP_TAPCELL_ROW_33_329
*2899 TAP_TAPCELL_ROW_33_330
*2900 TAP_TAPCELL_ROW_33_331
*2901 TAP_TAPCELL_ROW_34_332
*2902 TAP_TAPCELL_ROW_34_333
*2903 TAP_TAPCELL_ROW_34_334
*2904 TAP_TAPCELL_ROW_34_335
*2905 TAP_TAPCELL_ROW_34_336
*2906 TAP_TAPCELL_ROW_34_337
*2907 TAP_TAPCELL_ROW_35_338
*2908 TAP_TAPCELL_ROW_35_339
*2909 TAP_TAPCELL_ROW_35_340
*2910 TAP_TAPCELL_ROW_35_341
*2911 TAP_TAPCELL_ROW_35_342
*2912 TAP_TAPCELL_ROW_35_343
*2913 TAP_TAPCELL_ROW_36_344
*2914 TAP_TAPCELL_ROW_36_345
*2915 TAP_TAPCELL_ROW_36_346
*2916 TAP_TAPCELL_ROW_36_347
*2917 TAP_TAPCELL_ROW_36_348
*2918 TAP_TAPCELL_ROW_36_349
*2919 TAP_TAPCELL_ROW_37_350
*2920 TAP_TAPCELL_ROW_37_351
*2921 TAP_TAPCELL_ROW_37_352
*2922 TAP_TAPCELL_ROW_37_353
*2923 TAP_TAPCELL_ROW_37_354
*2924 TAP_TAPCELL_ROW_37_355
*2925 TAP_TAPCELL_ROW_38_356
*2926 TAP_TAPCELL_ROW_38_357
*2927 TAP_TAPCELL_ROW_38_358
*2928 TAP_TAPCELL_ROW_38_359
*2929 TAP_TAPCELL_ROW_38_360
*2930 TAP_TAPCELL_ROW_38_361
*2931 TAP_TAPCELL_ROW_39_362
*2932 TAP_TAPCELL_ROW_39_363
*2933 TAP_TAPCELL_ROW_39_364
*2934 TAP_TAPCELL_ROW_39_365
*2935 TAP_TAPCELL_ROW_39_366
*2936 TAP_TAPCELL_ROW_39_367
*2937 TAP_TAPCELL_ROW_3_146
*2938 TAP_TAPCELL_ROW_3_147
*2939 TAP_TAPCELL_ROW_3_148
*2940 TAP_TAPCELL_ROW_3_149
*2941 TAP_TAPCELL_ROW_3_150
*2942 TAP_TAPCELL_ROW_3_151
*2943 TAP_TAPCELL_ROW_40_368
*2944 TAP_TAPCELL_ROW_40_369
*2945 TAP_TAPCELL_ROW_40_370
*2946 TAP_TAPCELL_ROW_40_371
*2947 TAP_TAPCELL_ROW_40_372
*2948 TAP_TAPCELL_ROW_40_373
*2949 TAP_TAPCELL_ROW_41_374
*2950 TAP_TAPCELL_ROW_41_375
*2951 TAP_TAPCELL_ROW_41_376
*2952 TAP_TAPCELL_ROW_41_377
*2953 TAP_TAPCELL_ROW_41_378
*2954 TAP_TAPCELL_ROW_41_379
*2955 TAP_TAPCELL_ROW_42_380
*2956 TAP_TAPCELL_ROW_42_381
*2957 TAP_TAPCELL_ROW_42_382
*2958 TAP_TAPCELL_ROW_42_383
*2959 TAP_TAPCELL_ROW_42_384
*2960 TAP_TAPCELL_ROW_42_385
*2961 TAP_TAPCELL_ROW_43_386
*2962 TAP_TAPCELL_ROW_43_387
*2963 TAP_TAPCELL_ROW_43_388
*2964 TAP_TAPCELL_ROW_43_389
*2965 TAP_TAPCELL_ROW_43_390
*2966 TAP_TAPCELL_ROW_43_391
*2967 TAP_TAPCELL_ROW_44_392
*2968 TAP_TAPCELL_ROW_44_393
*2969 TAP_TAPCELL_ROW_44_394
*2970 TAP_TAPCELL_ROW_44_395
*2971 TAP_TAPCELL_ROW_44_396
*2972 TAP_TAPCELL_ROW_44_397
*2973 TAP_TAPCELL_ROW_45_398
*2974 TAP_TAPCELL_ROW_45_399
*2975 TAP_TAPCELL_ROW_45_400
*2976 TAP_TAPCELL_ROW_45_401
*2977 TAP_TAPCELL_ROW_45_402
*2978 TAP_TAPCELL_ROW_45_403
*2979 TAP_TAPCELL_ROW_46_404
*2980 TAP_TAPCELL_ROW_46_405
*2981 TAP_TAPCELL_ROW_46_406
*2982 TAP_TAPCELL_ROW_46_407
*2983 TAP_TAPCELL_ROW_46_408
*2984 TAP_TAPCELL_ROW_46_409
*2985 TAP_TAPCELL_ROW_47_410
*2986 TAP_TAPCELL_ROW_47_411
*2987 TAP_TAPCELL_ROW_47_412
*2988 TAP_TAPCELL_ROW_47_413
*2989 TAP_TAPCELL_ROW_47_414
*2990 TAP_TAPCELL_ROW_47_415
*2991 TAP_TAPCELL_ROW_48_416
*2992 TAP_TAPCELL_ROW_48_417
*2993 TAP_TAPCELL_ROW_48_418
*2994 TAP_TAPCELL_ROW_48_419
*2995 TAP_TAPCELL_ROW_48_420
*2996 TAP_TAPCELL_ROW_48_421
*2997 TAP_TAPCELL_ROW_49_422
*2998 TAP_TAPCELL_ROW_49_423
*2999 TAP_TAPCELL_ROW_49_424
*3000 TAP_TAPCELL_ROW_49_425
*3001 TAP_TAPCELL_ROW_49_426
*3002 TAP_TAPCELL_ROW_49_427
*3003 TAP_TAPCELL_ROW_4_152
*3004 TAP_TAPCELL_ROW_4_153
*3005 TAP_TAPCELL_ROW_4_154
*3006 TAP_TAPCELL_ROW_4_155
*3007 TAP_TAPCELL_ROW_4_156
*3008 TAP_TAPCELL_ROW_4_157
*3009 TAP_TAPCELL_ROW_50_428
*3010 TAP_TAPCELL_ROW_50_429
*3011 TAP_TAPCELL_ROW_50_430
*3012 TAP_TAPCELL_ROW_50_431
*3013 TAP_TAPCELL_ROW_50_432
*3014 TAP_TAPCELL_ROW_50_433
*3015 TAP_TAPCELL_ROW_51_434
*3016 TAP_TAPCELL_ROW_51_435
*3017 TAP_TAPCELL_ROW_51_436
*3018 TAP_TAPCELL_ROW_51_437
*3019 TAP_TAPCELL_ROW_51_438
*3020 TAP_TAPCELL_ROW_51_439
*3021 TAP_TAPCELL_ROW_52_440
*3022 TAP_TAPCELL_ROW_52_441
*3023 TAP_TAPCELL_ROW_52_442
*3024 TAP_TAPCELL_ROW_52_443
*3025 TAP_TAPCELL_ROW_52_444
*3026 TAP_TAPCELL_ROW_52_445
*3027 TAP_TAPCELL_ROW_53_446
*3028 TAP_TAPCELL_ROW_53_447
*3029 TAP_TAPCELL_ROW_53_448
*3030 TAP_TAPCELL_ROW_53_449
*3031 TAP_TAPCELL_ROW_53_450
*3032 TAP_TAPCELL_ROW_53_451
*3033 TAP_TAPCELL_ROW_54_452
*3034 TAP_TAPCELL_ROW_54_453
*3035 TAP_TAPCELL_ROW_54_454
*3036 TAP_TAPCELL_ROW_54_455
*3037 TAP_TAPCELL_ROW_54_456
*3038 TAP_TAPCELL_ROW_54_457
*3039 TAP_TAPCELL_ROW_55_458
*3040 TAP_TAPCELL_ROW_55_459
*3041 TAP_TAPCELL_ROW_55_460
*3042 TAP_TAPCELL_ROW_55_461
*3043 TAP_TAPCELL_ROW_55_462
*3044 TAP_TAPCELL_ROW_55_463
*3045 TAP_TAPCELL_ROW_56_464
*3046 TAP_TAPCELL_ROW_56_465
*3047 TAP_TAPCELL_ROW_56_466
*3048 TAP_TAPCELL_ROW_56_467
*3049 TAP_TAPCELL_ROW_56_468
*3050 TAP_TAPCELL_ROW_56_469
*3051 TAP_TAPCELL_ROW_57_470
*3052 TAP_TAPCELL_ROW_57_471
*3053 TAP_TAPCELL_ROW_57_472
*3054 TAP_TAPCELL_ROW_57_473
*3055 TAP_TAPCELL_ROW_57_474
*3056 TAP_TAPCELL_ROW_57_475
*3057 TAP_TAPCELL_ROW_58_476
*3058 TAP_TAPCELL_ROW_58_477
*3059 TAP_TAPCELL_ROW_58_478
*3060 TAP_TAPCELL_ROW_58_479
*3061 TAP_TAPCELL_ROW_58_480
*3062 TAP_TAPCELL_ROW_58_481
*3063 TAP_TAPCELL_ROW_59_482
*3064 TAP_TAPCELL_ROW_59_483
*3065 TAP_TAPCELL_ROW_59_484
*3066 TAP_TAPCELL_ROW_59_485
*3067 TAP_TAPCELL_ROW_59_486
*3068 TAP_TAPCELL_ROW_59_487
*3069 TAP_TAPCELL_ROW_5_158
*3070 TAP_TAPCELL_ROW_5_159
*3071 TAP_TAPCELL_ROW_5_160
*3072 TAP_TAPCELL_ROW_5_161
*3073 TAP_TAPCELL_ROW_5_162
*3074 TAP_TAPCELL_ROW_5_163
*3075 TAP_TAPCELL_ROW_60_488
*3076 TAP_TAPCELL_ROW_60_489
*3077 TAP_TAPCELL_ROW_60_490
*3078 TAP_TAPCELL_ROW_60_491
*3079 TAP_TAPCELL_ROW_60_492
*3080 TAP_TAPCELL_ROW_60_493
*3081 TAP_TAPCELL_ROW_60_494
*3082 TAP_TAPCELL_ROW_60_495
*3083 TAP_TAPCELL_ROW_60_496
*3084 TAP_TAPCELL_ROW_60_497
*3085 TAP_TAPCELL_ROW_60_498
*3086 TAP_TAPCELL_ROW_60_499
*3087 TAP_TAPCELL_ROW_6_164
*3088 TAP_TAPCELL_ROW_6_165
*3089 TAP_TAPCELL_ROW_6_166
*3090 TAP_TAPCELL_ROW_6_167
*3091 TAP_TAPCELL_ROW_6_168
*3092 TAP_TAPCELL_ROW_6_169
*3093 TAP_TAPCELL_ROW_7_170
*3094 TAP_TAPCELL_ROW_7_171
*3095 TAP_TAPCELL_ROW_7_172
*3096 TAP_TAPCELL_ROW_7_173
*3097 TAP_TAPCELL_ROW_7_174
*3098 TAP_TAPCELL_ROW_7_175
*3099 TAP_TAPCELL_ROW_8_176
*3100 TAP_TAPCELL_ROW_8_177
*3101 TAP_TAPCELL_ROW_8_178
*3102 TAP_TAPCELL_ROW_8_179
*3103 TAP_TAPCELL_ROW_8_180
*3104 TAP_TAPCELL_ROW_8_181
*3105 TAP_TAPCELL_ROW_9_182
*3106 TAP_TAPCELL_ROW_9_183
*3107 TAP_TAPCELL_ROW_9_184
*3108 TAP_TAPCELL_ROW_9_185
*3109 TAP_TAPCELL_ROW_9_186
*3110 TAP_TAPCELL_ROW_9_187
*3111 _296_
*3112 _297_
*3113 _298_
*3114 _299_
*3115 _300_
*3116 _301_
*3117 _302_
*3118 _303_
*3119 _304_
*3120 _305_
*3121 _306_
*3122 _307_
*3123 _308_
*3124 _309_
*3125 _310_
*3126 _311_
*3127 _312_
*3128 _313_
*3129 _314_
*3130 _315_
*3131 _316_
*3132 _317_
*3133 _318_
*3134 _319_
*3135 _320_
*3136 _321_
*3137 _322_
*3138 _323_
*3139 _324_
*3140 _325_
*3141 _326_
*3142 _327_
*3143 _328_
*3144 _329_
*3145 _330_
*3146 _331_
*3147 _332_
*3148 _333_
*3149 _334_
*3150 _335_
*3151 _336_
*3152 _337_
*3153 _338_
*3154 _339_
*3155 _340_
*3156 _341_
*3157 _342_
*3158 _343_
*3159 _344_
*3160 _345_
*3161 _346_
*3162 _347_
*3163 _348_
*3164 _349_
*3165 _350_
*3166 _351_
*3167 _352_
*3168 _353_
*3169 _354_
*3170 _355_
*3171 _356_
*3172 _357_
*3173 _358_
*3174 _359_
*3175 _360_
*3176 _361_
*3177 _362_
*3178 _363_
*3179 _364_
*3180 _365_
*3181 _366_
*3182 _367_
*3183 _368_
*3184 _369_
*3185 _370_
*3186 _371_
*3187 _372_
*3188 _373_
*3189 _374_
*3190 _375_
*3191 _376_
*3192 _377_
*3193 _378_
*3194 _379_
*3195 _380_
*3196 _381_
*3197 _382_
*3198 _383_
*3199 _384_
*3200 _385_
*3201 _386_
*3202 _387_
*3203 _388_
*3204 _389_
*3205 _390_
*3206 _391_
*3207 _392_
*3208 _393_
*3209 _394_
*3210 _395_
*3211 _396_
*3212 _397_
*3213 _398_
*3214 _399_
*3215 _400_
*3216 _401_
*3217 _402_
*3218 _403_
*3219 _404_
*3220 _405_
*3221 _406_
*3222 _407_
*3223 _408_
*3224 _409_
*3225 _410_
*3226 _411_
*3227 _412_
*3228 _413_
*3229 _414_
*3230 _415_
*3231 _416_
*3232 _417_
*3233 _418_
*3234 _419_
*3235 _420_
*3236 _421_
*3237 _422_
*3238 _423_
*3239 _424_
*3240 _425_
*3241 _426_
*3242 _427_
*3243 _428_
*3244 _429_
*3245 _430_
*3246 _431_
*3247 _432_
*3248 _433_
*3249 _434_
*3250 _435_
*3251 _436_
*3252 _437_
*3253 _438_
*3254 _439_
*3255 _440_
*3256 _441_
*3257 _442_
*3258 _443_
*3259 _444_
*3260 _445_
*3261 _446_
*3262 _447_
*3263 _448_
*3264 _449_
*3265 _450_
*3266 _451_
*3267 _452_
*3268 _453_
*3269 _454_
*3270 _455_
*3271 _456_
*3272 _457_
*3273 _458_
*3274 _459_
*3275 _460_
*3276 _461_
*3277 _462_
*3278 _463_
*3279 _464_
*3280 _465_
*3281 _466_
*3282 _467_
*3283 _468_
*3284 _469_
*3285 _470_
*3286 _471_
*3287 _472_
*3288 _473_
*3289 _474_
*3290 _475_
*3291 _476_
*3292 _477_
*3293 _478_
*3294 _479_
*3295 _480_
*3296 _481_
*3297 _482_
*3298 _483_
*3299 _484_
*3300 _485_
*3301 _486_
*3302 _487_
*3303 _488_
*3304 _489_
*3305 _490_
*3306 _491_
*3307 _492_
*3308 _493_
*3309 _494_
*3310 _495_
*3311 _496_
*3312 _497_
*3313 _498_
*3314 _499_
*3315 _500_
*3316 _501_
*3317 _502_
*3318 _503_
*3319 _504_
*3320 _505_
*3321 _506_
*3322 _507_
*3323 _508_
*3324 _509_
*3325 _510_
*3326 _511_
*3327 _512_
*3328 _513_
*3329 _514_
*3330 _515_
*3331 _516_
*3332 _517_
*3333 _518_
*3334 _519_
*3335 _520_
*3336 _521_
*3337 _522_
*3338 _523_
*3339 _524_
*3340 _525_
*3341 _526_
*3342 _527_
*3343 _528_
*3344 _529_
*3345 _530_
*3346 _531_
*3347 _532_
*3348 _533_
*3349 _534_
*3350 _535_
*3351 _536_
*3352 _537_
*3353 _538_
*3354 _539_
*3355 _540_
*3356 _541_
*3357 _542_
*3358 _543_
*3359 _544_
*3360 _545_
*3361 _546_
*3362 _547_
*3363 _548_
*3364 _549_
*3365 _550_
*3366 _551_
*3367 _552_
*3368 _553_
*3369 _554_
*3370 _555_
*3371 _556_
*3372 _557_
*3373 _558_
*3374 _559_
*3375 _560_
*3376 _561_
*3377 _562_
*3378 _563_
*3379 _564_
*3380 _565_
*3381 _566_
*3382 _567_
*3383 _568_
*3384 _569_
*3385 _570_
*3386 _571_
*3387 _572_
*3388 _573_
*3389 _574_
*3390 _575_
*3391 _576_
*3392 _577_
*3393 _578_
*3394 _579_
*3395 _580_
*3396 _581_
*3397 _582_
*3398 _583_
*3399 _584_
*3400 _585_
*3401 _586_
*3402 _587_
*3403 _588_
*3404 _589_
*3405 _590_
*3406 _591_
*3407 _592_
*3408 _593_
*3409 _594_
*3410 _595_
*3411 _596_
*3412 _597_
*3413 _598_
*3414 _599_
*3415 _600_
*3416 _601_
*3417 _602_
*3418 _603_
*3419 _604_
*3420 _605_
*3421 _606_
*3422 _607_
*3423 _608_
*3424 _609_
*3425 _610_
*3426 _611_
*3427 _612_
*3428 _613_
*3429 _614_
*3430 _615_
*3431 _616_
*3432 _617_
*3433 _618_
*3434 _619_
*3435 _620_
*3436 _621_
*3437 _622_
*3438 _623_
*3439 _624_
*3440 _625_
*3441 _626_
*3442 _627_
*3443 _628_
*3444 _629_
*3445 _630_
*3446 _631_
*3447 _632_
*3448 _633_
*3449 _634_
*3450 _635_
*3451 _636_
*3452 _637_
*3453 _638_
*3454 _639_
*3455 _640_
*3456 _641_
*3457 _642_
*3458 _643_
*3459 _644_
*3460 _645_
*3461 _646_
*3462 _647_
*3463 _648_
*3464 _649_
*3465 _650_
*3466 _651_
*3467 _652_
*3468 _653_
*3469 _654_
*3470 _655_
*3471 _656_
*3472 _657_
*3473 _658_
*3474 _659_
*3475 _660_
*3476 _661_
*3477 _662_
*3478 _663_
*3479 _664_
*3480 _665_
*3481 _666_
*3482 _667_
*3483 _668_
*3484 _669_
*3485 _670_
*3486 _671_
*3487 _672_
*3488 _673_
*3489 _674_
*3490 _675_
*3491 _676_
*3492 _677_
*3493 _678_
*3494 _679_
*3495 _680_
*3496 _681_
*3497 _682_
*3498 _683_
*3499 _684_
*3500 _685_
*3501 _686_
*3502 _687_
*3503 _688_
*3504 _689_
*3505 _690_
*3506 _691_
*3507 _692_
*3508 _693_
*3509 _694_
*3510 _695_
*3511 _696_
*3512 _697_
*3513 _698_
*3514 _699_
*3515 _700_
*3516 _701_
*3517 _702_
*3518 _703_
*3519 _704_
*3520 _705_
*3521 _718_
*3522 _719_
*3523 _720_
*3524 _721_
*3525 _722_
*3526 _723_
*3527 _724_
*3528 _725_
*3529 clkbuf_0_iCLK
*3530 clkbuf_3_0__f_iCLK
*3531 clkbuf_3_1__f_iCLK
*3532 clkbuf_3_2__f_iCLK
*3533 clkbuf_3_3__f_iCLK
*3534 clkbuf_3_4__f_iCLK
*3535 clkbuf_3_5__f_iCLK
*3536 clkbuf_3_6__f_iCLK
*3537 clkbuf_3_7__f_iCLK
*3538 clkload0
*3539 clkload1
*3540 clkload2
*3541 clkload3
*3542 clkload4
*3543 clkload5
*3544 clkload6
*3545 hold34
*3546 hold35
*3547 hold36
*3548 hold37
*3549 hold38
*3550 hold39
*3551 hold40
*3552 hold41
*3553 hold42
*3554 hold43
*3555 hold44
*3556 hold45
*3557 hold46
*3558 hold47
*3559 hold48
*3560 hold49
*3561 input1
*3562 input2
*3563 input3
*3564 input4
*3565 max_cap10
*3566 max_cap12
*3567 max_cap13
*3568 max_cap14
*3569 max_cap15
*3570 max_cap17
*3571 max_cap18
*3572 max_cap19
*3573 max_cap20
*3574 max_cap21
*3575 max_cap22
*3576 max_cap8
*3577 max_cap9
*3578 output5
*3579 output6
*3580 trc_top
*3581 trc_top_23
*3582 trc_top_24
*3583 trc_top_25
*3584 trc_top_26
*3585 trc_top_27
*3586 trc_top_28
*3587 trc_top_29
*3588 trc_top_30
*3589 trc_top_31
*3590 trc_top_32
*3591 trc_top_33
*3592 u_core\.delay_paths\.u_trc0\.gen_inv_stage\[0\]\.inv
*3593 u_core\.delay_paths\.u_trc0\.gen_inv_stage\[100\]\.inv
*3594 u_core\.delay_paths\.u_trc0\.gen_inv_stage\[101\]\.inv
*3595 u_core\.delay_paths\.u_trc0\.gen_inv_stage\[102\]\.inv
*3596 u_core\.delay_paths\.u_trc0\.gen_inv_stage\[103\]\.inv
*3597 u_core\.delay_paths\.u_trc0\.gen_inv_stage\[104\]\.inv
*3598 u_core\.delay_paths\.u_trc0\.gen_inv_stage\[105\]\.inv
*3599 u_core\.delay_paths\.u_trc0\.gen_inv_stage\[106\]\.inv
*3600 u_core\.delay_paths\.u_trc0\.gen_inv_stage\[107\]\.inv
*3601 u_core\.delay_paths\.u_trc0\.gen_inv_stage\[108\]\.inv
*3602 u_core\.delay_paths\.u_trc0\.gen_inv_stage\[109\]\.inv
*3603 u_core\.delay_paths\.u_trc0\.gen_inv_stage\[10\]\.inv
*3604 u_core\.delay_paths\.u_trc0\.gen_inv_stage\[110\]\.inv
*3605 u_core\.delay_paths\.u_trc0\.gen_inv_stage\[111\]\.inv
*3606 u_core\.delay_paths\.u_trc0\.gen_inv_stage\[112\]\.inv
*3607 u_core\.delay_paths\.u_trc0\.gen_inv_stage\[113\]\.inv
*3608 u_core\.delay_paths\.u_trc0\.gen_inv_stage\[114\]\.inv
*3609 u_core\.delay_paths\.u_trc0\.gen_inv_stage\[115\]\.inv
*3610 u_core\.delay_paths\.u_trc0\.gen_inv_stage\[116\]\.inv
*3611 u_core\.delay_paths\.u_trc0\.gen_inv_stage\[117\]\.inv
*3612 u_core\.delay_paths\.u_trc0\.gen_inv_stage\[118\]\.inv
*3613 u_core\.delay_paths\.u_trc0\.gen_inv_stage\[119\]\.inv
*3614 u_core\.delay_paths\.u_trc0\.gen_inv_stage\[11\]\.inv
*3615 u_core\.delay_paths\.u_trc0\.gen_inv_stage\[120\]\.inv
*3616 u_core\.delay_paths\.u_trc0\.gen_inv_stage\[121\]\.inv
*3617 u_core\.delay_paths\.u_trc0\.gen_inv_stage\[122\]\.inv
*3618 u_core\.delay_paths\.u_trc0\.gen_inv_stage\[123\]\.inv
*3619 u_core\.delay_paths\.u_trc0\.gen_inv_stage\[124\]\.inv
*3620 u_core\.delay_paths\.u_trc0\.gen_inv_stage\[125\]\.inv
*3621 u_core\.delay_paths\.u_trc0\.gen_inv_stage\[126\]\.inv
*3622 u_core\.delay_paths\.u_trc0\.gen_inv_stage\[127\]\.inv
*3623 u_core\.delay_paths\.u_trc0\.gen_inv_stage\[128\]\.inv
*3624 u_core\.delay_paths\.u_trc0\.gen_inv_stage\[129\]\.inv
*3625 u_core\.delay_paths\.u_trc0\.gen_inv_stage\[12\]\.inv
*3626 u_core\.delay_paths\.u_trc0\.gen_inv_stage\[130\]\.inv
*3627 u_core\.delay_paths\.u_trc0\.gen_inv_stage\[131\]\.inv
*3628 u_core\.delay_paths\.u_trc0\.gen_inv_stage\[132\]\.inv
*3629 u_core\.delay_paths\.u_trc0\.gen_inv_stage\[133\]\.inv
*3630 u_core\.delay_paths\.u_trc0\.gen_inv_stage\[134\]\.inv
*3631 u_core\.delay_paths\.u_trc0\.gen_inv_stage\[135\]\.inv
*3632 u_core\.delay_paths\.u_trc0\.gen_inv_stage\[136\]\.inv
*3633 u_core\.delay_paths\.u_trc0\.gen_inv_stage\[137\]\.inv
*3634 u_core\.delay_paths\.u_trc0\.gen_inv_stage\[138\]\.inv
*3635 u_core\.delay_paths\.u_trc0\.gen_inv_stage\[139\]\.inv
*3636 u_core\.delay_paths\.u_trc0\.gen_inv_stage\[13\]\.inv
*3637 u_core\.delay_paths\.u_trc0\.gen_inv_stage\[140\]\.inv
*3638 u_core\.delay_paths\.u_trc0\.gen_inv_stage\[141\]\.inv
*3639 u_core\.delay_paths\.u_trc0\.gen_inv_stage\[142\]\.inv
*3640 u_core\.delay_paths\.u_trc0\.gen_inv_stage\[143\]\.inv
*3641 u_core\.delay_paths\.u_trc0\.gen_inv_stage\[144\]\.inv
*3642 u_core\.delay_paths\.u_trc0\.gen_inv_stage\[145\]\.inv
*3643 u_core\.delay_paths\.u_trc0\.gen_inv_stage\[146\]\.inv
*3644 u_core\.delay_paths\.u_trc0\.gen_inv_stage\[147\]\.inv
*3645 u_core\.delay_paths\.u_trc0\.gen_inv_stage\[148\]\.inv
*3646 u_core\.delay_paths\.u_trc0\.gen_inv_stage\[149\]\.inv
*3647 u_core\.delay_paths\.u_trc0\.gen_inv_stage\[14\]\.inv
*3648 u_core\.delay_paths\.u_trc0\.gen_inv_stage\[150\]\.inv
*3649 u_core\.delay_paths\.u_trc0\.gen_inv_stage\[151\]\.inv
*3650 u_core\.delay_paths\.u_trc0\.gen_inv_stage\[152\]\.inv
*3651 u_core\.delay_paths\.u_trc0\.gen_inv_stage\[153\]\.inv
*3652 u_core\.delay_paths\.u_trc0\.gen_inv_stage\[154\]\.inv
*3653 u_core\.delay_paths\.u_trc0\.gen_inv_stage\[155\]\.inv
*3654 u_core\.delay_paths\.u_trc0\.gen_inv_stage\[156\]\.inv
*3655 u_core\.delay_paths\.u_trc0\.gen_inv_stage\[157\]\.inv
*3656 u_core\.delay_paths\.u_trc0\.gen_inv_stage\[158\]\.inv
*3657 u_core\.delay_paths\.u_trc0\.gen_inv_stage\[159\]\.inv
*3658 u_core\.delay_paths\.u_trc0\.gen_inv_stage\[15\]\.inv
*3659 u_core\.delay_paths\.u_trc0\.gen_inv_stage\[160\]\.inv
*3660 u_core\.delay_paths\.u_trc0\.gen_inv_stage\[161\]\.inv
*3661 u_core\.delay_paths\.u_trc0\.gen_inv_stage\[162\]\.inv
*3662 u_core\.delay_paths\.u_trc0\.gen_inv_stage\[163\]\.inv
*3663 u_core\.delay_paths\.u_trc0\.gen_inv_stage\[164\]\.inv
*3664 u_core\.delay_paths\.u_trc0\.gen_inv_stage\[165\]\.inv
*3665 u_core\.delay_paths\.u_trc0\.gen_inv_stage\[166\]\.inv
*3666 u_core\.delay_paths\.u_trc0\.gen_inv_stage\[167\]\.inv
*3667 u_core\.delay_paths\.u_trc0\.gen_inv_stage\[168\]\.inv
*3668 u_core\.delay_paths\.u_trc0\.gen_inv_stage\[169\]\.inv
*3669 u_core\.delay_paths\.u_trc0\.gen_inv_stage\[16\]\.inv
*3670 u_core\.delay_paths\.u_trc0\.gen_inv_stage\[170\]\.inv
*3671 u_core\.delay_paths\.u_trc0\.gen_inv_stage\[171\]\.inv
*3672 u_core\.delay_paths\.u_trc0\.gen_inv_stage\[172\]\.inv
*3673 u_core\.delay_paths\.u_trc0\.gen_inv_stage\[173\]\.inv
*3674 u_core\.delay_paths\.u_trc0\.gen_inv_stage\[174\]\.inv
*3675 u_core\.delay_paths\.u_trc0\.gen_inv_stage\[175\]\.inv
*3676 u_core\.delay_paths\.u_trc0\.gen_inv_stage\[176\]\.inv
*3677 u_core\.delay_paths\.u_trc0\.gen_inv_stage\[177\]\.inv
*3678 u_core\.delay_paths\.u_trc0\.gen_inv_stage\[178\]\.inv
*3679 u_core\.delay_paths\.u_trc0\.gen_inv_stage\[179\]\.inv
*3680 u_core\.delay_paths\.u_trc0\.gen_inv_stage\[17\]\.inv
*3681 u_core\.delay_paths\.u_trc0\.gen_inv_stage\[180\]\.inv
*3682 u_core\.delay_paths\.u_trc0\.gen_inv_stage\[181\]\.inv
*3683 u_core\.delay_paths\.u_trc0\.gen_inv_stage\[182\]\.inv
*3684 u_core\.delay_paths\.u_trc0\.gen_inv_stage\[183\]\.inv
*3685 u_core\.delay_paths\.u_trc0\.gen_inv_stage\[184\]\.inv
*3686 u_core\.delay_paths\.u_trc0\.gen_inv_stage\[185\]\.inv
*3687 u_core\.delay_paths\.u_trc0\.gen_inv_stage\[186\]\.inv
*3688 u_core\.delay_paths\.u_trc0\.gen_inv_stage\[187\]\.inv
*3689 u_core\.delay_paths\.u_trc0\.gen_inv_stage\[188\]\.inv
*3690 u_core\.delay_paths\.u_trc0\.gen_inv_stage\[189\]\.inv
*3691 u_core\.delay_paths\.u_trc0\.gen_inv_stage\[18\]\.inv
*3692 u_core\.delay_paths\.u_trc0\.gen_inv_stage\[190\]\.inv
*3693 u_core\.delay_paths\.u_trc0\.gen_inv_stage\[191\]\.inv
*3694 u_core\.delay_paths\.u_trc0\.gen_inv_stage\[19\]\.inv
*3695 u_core\.delay_paths\.u_trc0\.gen_inv_stage\[1\]\.inv
*3696 u_core\.delay_paths\.u_trc0\.gen_inv_stage\[20\]\.inv
*3697 u_core\.delay_paths\.u_trc0\.gen_inv_stage\[21\]\.inv
*3698 u_core\.delay_paths\.u_trc0\.gen_inv_stage\[22\]\.inv
*3699 u_core\.delay_paths\.u_trc0\.gen_inv_stage\[23\]\.inv
*3700 u_core\.delay_paths\.u_trc0\.gen_inv_stage\[24\]\.inv
*3701 u_core\.delay_paths\.u_trc0\.gen_inv_stage\[25\]\.inv
*3702 u_core\.delay_paths\.u_trc0\.gen_inv_stage\[26\]\.inv
*3703 u_core\.delay_paths\.u_trc0\.gen_inv_stage\[27\]\.inv
*3704 u_core\.delay_paths\.u_trc0\.gen_inv_stage\[28\]\.inv
*3705 u_core\.delay_paths\.u_trc0\.gen_inv_stage\[29\]\.inv
*3706 u_core\.delay_paths\.u_trc0\.gen_inv_stage\[2\]\.inv
*3707 u_core\.delay_paths\.u_trc0\.gen_inv_stage\[30\]\.inv
*3708 u_core\.delay_paths\.u_trc0\.gen_inv_stage\[31\]\.inv
*3709 u_core\.delay_paths\.u_trc0\.gen_inv_stage\[32\]\.inv
*3710 u_core\.delay_paths\.u_trc0\.gen_inv_stage\[33\]\.inv
*3711 u_core\.delay_paths\.u_trc0\.gen_inv_stage\[34\]\.inv
*3712 u_core\.delay_paths\.u_trc0\.gen_inv_stage\[35\]\.inv
*3713 u_core\.delay_paths\.u_trc0\.gen_inv_stage\[36\]\.inv
*3714 u_core\.delay_paths\.u_trc0\.gen_inv_stage\[37\]\.inv
*3715 u_core\.delay_paths\.u_trc0\.gen_inv_stage\[38\]\.inv
*3716 u_core\.delay_paths\.u_trc0\.gen_inv_stage\[39\]\.inv
*3717 u_core\.delay_paths\.u_trc0\.gen_inv_stage\[3\]\.inv
*3718 u_core\.delay_paths\.u_trc0\.gen_inv_stage\[40\]\.inv
*3719 u_core\.delay_paths\.u_trc0\.gen_inv_stage\[41\]\.inv
*3720 u_core\.delay_paths\.u_trc0\.gen_inv_stage\[42\]\.inv
*3721 u_core\.delay_paths\.u_trc0\.gen_inv_stage\[43\]\.inv
*3722 u_core\.delay_paths\.u_trc0\.gen_inv_stage\[44\]\.inv
*3723 u_core\.delay_paths\.u_trc0\.gen_inv_stage\[45\]\.inv
*3724 u_core\.delay_paths\.u_trc0\.gen_inv_stage\[46\]\.inv
*3725 u_core\.delay_paths\.u_trc0\.gen_inv_stage\[47\]\.inv
*3726 u_core\.delay_paths\.u_trc0\.gen_inv_stage\[48\]\.inv
*3727 u_core\.delay_paths\.u_trc0\.gen_inv_stage\[49\]\.inv
*3728 u_core\.delay_paths\.u_trc0\.gen_inv_stage\[4\]\.inv
*3729 u_core\.delay_paths\.u_trc0\.gen_inv_stage\[50\]\.inv
*3730 u_core\.delay_paths\.u_trc0\.gen_inv_stage\[51\]\.inv
*3731 u_core\.delay_paths\.u_trc0\.gen_inv_stage\[52\]\.inv
*3732 u_core\.delay_paths\.u_trc0\.gen_inv_stage\[53\]\.inv
*3733 u_core\.delay_paths\.u_trc0\.gen_inv_stage\[54\]\.inv
*3734 u_core\.delay_paths\.u_trc0\.gen_inv_stage\[55\]\.inv
*3735 u_core\.delay_paths\.u_trc0\.gen_inv_stage\[56\]\.inv
*3736 u_core\.delay_paths\.u_trc0\.gen_inv_stage\[57\]\.inv
*3737 u_core\.delay_paths\.u_trc0\.gen_inv_stage\[58\]\.inv
*3738 u_core\.delay_paths\.u_trc0\.gen_inv_stage\[59\]\.inv
*3739 u_core\.delay_paths\.u_trc0\.gen_inv_stage\[5\]\.inv
*3740 u_core\.delay_paths\.u_trc0\.gen_inv_stage\[60\]\.inv
*3741 u_core\.delay_paths\.u_trc0\.gen_inv_stage\[61\]\.inv
*3742 u_core\.delay_paths\.u_trc0\.gen_inv_stage\[62\]\.inv
*3743 u_core\.delay_paths\.u_trc0\.gen_inv_stage\[63\]\.inv
*3744 u_core\.delay_paths\.u_trc0\.gen_inv_stage\[64\]\.inv
*3745 u_core\.delay_paths\.u_trc0\.gen_inv_stage\[65\]\.inv
*3746 u_core\.delay_paths\.u_trc0\.gen_inv_stage\[66\]\.inv
*3747 u_core\.delay_paths\.u_trc0\.gen_inv_stage\[67\]\.inv
*3748 u_core\.delay_paths\.u_trc0\.gen_inv_stage\[68\]\.inv
*3749 u_core\.delay_paths\.u_trc0\.gen_inv_stage\[69\]\.inv
*3750 u_core\.delay_paths\.u_trc0\.gen_inv_stage\[6\]\.inv
*3751 u_core\.delay_paths\.u_trc0\.gen_inv_stage\[70\]\.inv
*3752 u_core\.delay_paths\.u_trc0\.gen_inv_stage\[71\]\.inv
*3753 u_core\.delay_paths\.u_trc0\.gen_inv_stage\[72\]\.inv
*3754 u_core\.delay_paths\.u_trc0\.gen_inv_stage\[73\]\.inv
*3755 u_core\.delay_paths\.u_trc0\.gen_inv_stage\[74\]\.inv
*3756 u_core\.delay_paths\.u_trc0\.gen_inv_stage\[75\]\.inv
*3757 u_core\.delay_paths\.u_trc0\.gen_inv_stage\[76\]\.inv
*3758 u_core\.delay_paths\.u_trc0\.gen_inv_stage\[77\]\.inv
*3759 u_core\.delay_paths\.u_trc0\.gen_inv_stage\[78\]\.inv
*3760 u_core\.delay_paths\.u_trc0\.gen_inv_stage\[79\]\.inv
*3761 u_core\.delay_paths\.u_trc0\.gen_inv_stage\[7\]\.inv
*3762 u_core\.delay_paths\.u_trc0\.gen_inv_stage\[80\]\.inv
*3763 u_core\.delay_paths\.u_trc0\.gen_inv_stage\[81\]\.inv
*3764 u_core\.delay_paths\.u_trc0\.gen_inv_stage\[82\]\.inv
*3765 u_core\.delay_paths\.u_trc0\.gen_inv_stage\[83\]\.inv
*3766 u_core\.delay_paths\.u_trc0\.gen_inv_stage\[84\]\.inv
*3767 u_core\.delay_paths\.u_trc0\.gen_inv_stage\[85\]\.inv
*3768 u_core\.delay_paths\.u_trc0\.gen_inv_stage\[86\]\.inv
*3769 u_core\.delay_paths\.u_trc0\.gen_inv_stage\[87\]\.inv
*3770 u_core\.delay_paths\.u_trc0\.gen_inv_stage\[88\]\.inv
*3771 u_core\.delay_paths\.u_trc0\.gen_inv_stage\[89\]\.inv
*3772 u_core\.delay_paths\.u_trc0\.gen_inv_stage\[8\]\.inv
*3773 u_core\.delay_paths\.u_trc0\.gen_inv_stage\[90\]\.inv
*3774 u_core\.delay_paths\.u_trc0\.gen_inv_stage\[91\]\.inv
*3775 u_core\.delay_paths\.u_trc0\.gen_inv_stage\[92\]\.inv
*3776 u_core\.delay_paths\.u_trc0\.gen_inv_stage\[93\]\.inv
*3777 u_core\.delay_paths\.u_trc0\.gen_inv_stage\[94\]\.inv
*3778 u_core\.delay_paths\.u_trc0\.gen_inv_stage\[95\]\.inv
*3779 u_core\.delay_paths\.u_trc0\.gen_inv_stage\[96\]\.inv
*3780 u_core\.delay_paths\.u_trc0\.gen_inv_stage\[97\]\.inv
*3781 u_core\.delay_paths\.u_trc0\.gen_inv_stage\[98\]\.inv
*3782 u_core\.delay_paths\.u_trc0\.gen_inv_stage\[99\]\.inv
*3783 u_core\.delay_paths\.u_trc0\.gen_inv_stage\[9\]\.inv
*3784 u_core\.delay_paths\.u_trc1\.gen_inv_stage\[0\]\.inv
*3785 u_core\.delay_paths\.u_trc1\.gen_inv_stage\[100\]\.inv
*3786 u_core\.delay_paths\.u_trc1\.gen_inv_stage\[101\]\.inv
*3787 u_core\.delay_paths\.u_trc1\.gen_inv_stage\[102\]\.inv
*3788 u_core\.delay_paths\.u_trc1\.gen_inv_stage\[103\]\.inv
*3789 u_core\.delay_paths\.u_trc1\.gen_inv_stage\[104\]\.inv
*3790 u_core\.delay_paths\.u_trc1\.gen_inv_stage\[105\]\.inv
*3791 u_core\.delay_paths\.u_trc1\.gen_inv_stage\[106\]\.inv
*3792 u_core\.delay_paths\.u_trc1\.gen_inv_stage\[107\]\.inv
*3793 u_core\.delay_paths\.u_trc1\.gen_inv_stage\[108\]\.inv
*3794 u_core\.delay_paths\.u_trc1\.gen_inv_stage\[109\]\.inv
*3795 u_core\.delay_paths\.u_trc1\.gen_inv_stage\[10\]\.inv
*3796 u_core\.delay_paths\.u_trc1\.gen_inv_stage\[110\]\.inv
*3797 u_core\.delay_paths\.u_trc1\.gen_inv_stage\[111\]\.inv
*3798 u_core\.delay_paths\.u_trc1\.gen_inv_stage\[112\]\.inv
*3799 u_core\.delay_paths\.u_trc1\.gen_inv_stage\[113\]\.inv
*3800 u_core\.delay_paths\.u_trc1\.gen_inv_stage\[114\]\.inv
*3801 u_core\.delay_paths\.u_trc1\.gen_inv_stage\[115\]\.inv
*3802 u_core\.delay_paths\.u_trc1\.gen_inv_stage\[116\]\.inv
*3803 u_core\.delay_paths\.u_trc1\.gen_inv_stage\[117\]\.inv
*3804 u_core\.delay_paths\.u_trc1\.gen_inv_stage\[118\]\.inv
*3805 u_core\.delay_paths\.u_trc1\.gen_inv_stage\[119\]\.inv
*3806 u_core\.delay_paths\.u_trc1\.gen_inv_stage\[11\]\.inv
*3807 u_core\.delay_paths\.u_trc1\.gen_inv_stage\[120\]\.inv
*3808 u_core\.delay_paths\.u_trc1\.gen_inv_stage\[121\]\.inv
*3809 u_core\.delay_paths\.u_trc1\.gen_inv_stage\[122\]\.inv
*3810 u_core\.delay_paths\.u_trc1\.gen_inv_stage\[123\]\.inv
*3811 u_core\.delay_paths\.u_trc1\.gen_inv_stage\[124\]\.inv
*3812 u_core\.delay_paths\.u_trc1\.gen_inv_stage\[125\]\.inv
*3813 u_core\.delay_paths\.u_trc1\.gen_inv_stage\[126\]\.inv
*3814 u_core\.delay_paths\.u_trc1\.gen_inv_stage\[127\]\.inv
*3815 u_core\.delay_paths\.u_trc1\.gen_inv_stage\[128\]\.inv
*3816 u_core\.delay_paths\.u_trc1\.gen_inv_stage\[129\]\.inv
*3817 u_core\.delay_paths\.u_trc1\.gen_inv_stage\[12\]\.inv
*3818 u_core\.delay_paths\.u_trc1\.gen_inv_stage\[130\]\.inv
*3819 u_core\.delay_paths\.u_trc1\.gen_inv_stage\[131\]\.inv
*3820 u_core\.delay_paths\.u_trc1\.gen_inv_stage\[132\]\.inv
*3821 u_core\.delay_paths\.u_trc1\.gen_inv_stage\[133\]\.inv
*3822 u_core\.delay_paths\.u_trc1\.gen_inv_stage\[134\]\.inv
*3823 u_core\.delay_paths\.u_trc1\.gen_inv_stage\[135\]\.inv
*3824 u_core\.delay_paths\.u_trc1\.gen_inv_stage\[136\]\.inv
*3825 u_core\.delay_paths\.u_trc1\.gen_inv_stage\[137\]\.inv
*3826 u_core\.delay_paths\.u_trc1\.gen_inv_stage\[138\]\.inv
*3827 u_core\.delay_paths\.u_trc1\.gen_inv_stage\[139\]\.inv
*3828 u_core\.delay_paths\.u_trc1\.gen_inv_stage\[13\]\.inv
*3829 u_core\.delay_paths\.u_trc1\.gen_inv_stage\[140\]\.inv
*3830 u_core\.delay_paths\.u_trc1\.gen_inv_stage\[141\]\.inv
*3831 u_core\.delay_paths\.u_trc1\.gen_inv_stage\[142\]\.inv
*3832 u_core\.delay_paths\.u_trc1\.gen_inv_stage\[143\]\.inv
*3833 u_core\.delay_paths\.u_trc1\.gen_inv_stage\[14\]\.inv
*3834 u_core\.delay_paths\.u_trc1\.gen_inv_stage\[15\]\.inv
*3835 u_core\.delay_paths\.u_trc1\.gen_inv_stage\[16\]\.inv
*3836 u_core\.delay_paths\.u_trc1\.gen_inv_stage\[17\]\.inv
*3837 u_core\.delay_paths\.u_trc1\.gen_inv_stage\[18\]\.inv
*3838 u_core\.delay_paths\.u_trc1\.gen_inv_stage\[19\]\.inv
*3839 u_core\.delay_paths\.u_trc1\.gen_inv_stage\[1\]\.inv
*3840 u_core\.delay_paths\.u_trc1\.gen_inv_stage\[20\]\.inv
*3841 u_core\.delay_paths\.u_trc1\.gen_inv_stage\[21\]\.inv
*3842 u_core\.delay_paths\.u_trc1\.gen_inv_stage\[22\]\.inv
*3843 u_core\.delay_paths\.u_trc1\.gen_inv_stage\[23\]\.inv
*3844 u_core\.delay_paths\.u_trc1\.gen_inv_stage\[24\]\.inv
*3845 u_core\.delay_paths\.u_trc1\.gen_inv_stage\[25\]\.inv
*3846 u_core\.delay_paths\.u_trc1\.gen_inv_stage\[26\]\.inv
*3847 u_core\.delay_paths\.u_trc1\.gen_inv_stage\[27\]\.inv
*3848 u_core\.delay_paths\.u_trc1\.gen_inv_stage\[28\]\.inv
*3849 u_core\.delay_paths\.u_trc1\.gen_inv_stage\[29\]\.inv
*3850 u_core\.delay_paths\.u_trc1\.gen_inv_stage\[2\]\.inv
*3851 u_core\.delay_paths\.u_trc1\.gen_inv_stage\[30\]\.inv
*3852 u_core\.delay_paths\.u_trc1\.gen_inv_stage\[31\]\.inv
*3853 u_core\.delay_paths\.u_trc1\.gen_inv_stage\[32\]\.inv
*3854 u_core\.delay_paths\.u_trc1\.gen_inv_stage\[33\]\.inv
*3855 u_core\.delay_paths\.u_trc1\.gen_inv_stage\[34\]\.inv
*3856 u_core\.delay_paths\.u_trc1\.gen_inv_stage\[35\]\.inv
*3857 u_core\.delay_paths\.u_trc1\.gen_inv_stage\[36\]\.inv
*3858 u_core\.delay_paths\.u_trc1\.gen_inv_stage\[37\]\.inv
*3859 u_core\.delay_paths\.u_trc1\.gen_inv_stage\[38\]\.inv
*3860 u_core\.delay_paths\.u_trc1\.gen_inv_stage\[39\]\.inv
*3861 u_core\.delay_paths\.u_trc1\.gen_inv_stage\[3\]\.inv
*3862 u_core\.delay_paths\.u_trc1\.gen_inv_stage\[40\]\.inv
*3863 u_core\.delay_paths\.u_trc1\.gen_inv_stage\[41\]\.inv
*3864 u_core\.delay_paths\.u_trc1\.gen_inv_stage\[42\]\.inv
*3865 u_core\.delay_paths\.u_trc1\.gen_inv_stage\[43\]\.inv
*3866 u_core\.delay_paths\.u_trc1\.gen_inv_stage\[44\]\.inv
*3867 u_core\.delay_paths\.u_trc1\.gen_inv_stage\[45\]\.inv
*3868 u_core\.delay_paths\.u_trc1\.gen_inv_stage\[46\]\.inv
*3869 u_core\.delay_paths\.u_trc1\.gen_inv_stage\[47\]\.inv
*3870 u_core\.delay_paths\.u_trc1\.gen_inv_stage\[48\]\.inv
*3871 u_core\.delay_paths\.u_trc1\.gen_inv_stage\[49\]\.inv
*3872 u_core\.delay_paths\.u_trc1\.gen_inv_stage\[4\]\.inv
*3873 u_core\.delay_paths\.u_trc1\.gen_inv_stage\[50\]\.inv
*3874 u_core\.delay_paths\.u_trc1\.gen_inv_stage\[51\]\.inv
*3875 u_core\.delay_paths\.u_trc1\.gen_inv_stage\[52\]\.inv
*3876 u_core\.delay_paths\.u_trc1\.gen_inv_stage\[53\]\.inv
*3877 u_core\.delay_paths\.u_trc1\.gen_inv_stage\[54\]\.inv
*3878 u_core\.delay_paths\.u_trc1\.gen_inv_stage\[55\]\.inv
*3879 u_core\.delay_paths\.u_trc1\.gen_inv_stage\[56\]\.inv
*3880 u_core\.delay_paths\.u_trc1\.gen_inv_stage\[57\]\.inv
*3881 u_core\.delay_paths\.u_trc1\.gen_inv_stage\[58\]\.inv
*3882 u_core\.delay_paths\.u_trc1\.gen_inv_stage\[59\]\.inv
*3883 u_core\.delay_paths\.u_trc1\.gen_inv_stage\[5\]\.inv
*3884 u_core\.delay_paths\.u_trc1\.gen_inv_stage\[60\]\.inv
*3885 u_core\.delay_paths\.u_trc1\.gen_inv_stage\[61\]\.inv
*3886 u_core\.delay_paths\.u_trc1\.gen_inv_stage\[62\]\.inv
*3887 u_core\.delay_paths\.u_trc1\.gen_inv_stage\[63\]\.inv
*3888 u_core\.delay_paths\.u_trc1\.gen_inv_stage\[64\]\.inv
*3889 u_core\.delay_paths\.u_trc1\.gen_inv_stage\[65\]\.inv
*3890 u_core\.delay_paths\.u_trc1\.gen_inv_stage\[66\]\.inv
*3891 u_core\.delay_paths\.u_trc1\.gen_inv_stage\[67\]\.inv
*3892 u_core\.delay_paths\.u_trc1\.gen_inv_stage\[68\]\.inv
*3893 u_core\.delay_paths\.u_trc1\.gen_inv_stage\[69\]\.inv
*3894 u_core\.delay_paths\.u_trc1\.gen_inv_stage\[6\]\.inv
*3895 u_core\.delay_paths\.u_trc1\.gen_inv_stage\[70\]\.inv
*3896 u_core\.delay_paths\.u_trc1\.gen_inv_stage\[71\]\.inv
*3897 u_core\.delay_paths\.u_trc1\.gen_inv_stage\[72\]\.inv
*3898 u_core\.delay_paths\.u_trc1\.gen_inv_stage\[73\]\.inv
*3899 u_core\.delay_paths\.u_trc1\.gen_inv_stage\[74\]\.inv
*3900 u_core\.delay_paths\.u_trc1\.gen_inv_stage\[75\]\.inv
*3901 u_core\.delay_paths\.u_trc1\.gen_inv_stage\[76\]\.inv
*3902 u_core\.delay_paths\.u_trc1\.gen_inv_stage\[77\]\.inv
*3903 u_core\.delay_paths\.u_trc1\.gen_inv_stage\[78\]\.inv
*3904 u_core\.delay_paths\.u_trc1\.gen_inv_stage\[79\]\.inv
*3905 u_core\.delay_paths\.u_trc1\.gen_inv_stage\[7\]\.inv
*3906 u_core\.delay_paths\.u_trc1\.gen_inv_stage\[80\]\.inv
*3907 u_core\.delay_paths\.u_trc1\.gen_inv_stage\[81\]\.inv
*3908 u_core\.delay_paths\.u_trc1\.gen_inv_stage\[82\]\.inv
*3909 u_core\.delay_paths\.u_trc1\.gen_inv_stage\[83\]\.inv
*3910 u_core\.delay_paths\.u_trc1\.gen_inv_stage\[84\]\.inv
*3911 u_core\.delay_paths\.u_trc1\.gen_inv_stage\[85\]\.inv
*3912 u_core\.delay_paths\.u_trc1\.gen_inv_stage\[86\]\.inv
*3913 u_core\.delay_paths\.u_trc1\.gen_inv_stage\[87\]\.inv
*3914 u_core\.delay_paths\.u_trc1\.gen_inv_stage\[88\]\.inv
*3915 u_core\.delay_paths\.u_trc1\.gen_inv_stage\[89\]\.inv
*3916 u_core\.delay_paths\.u_trc1\.gen_inv_stage\[8\]\.inv
*3917 u_core\.delay_paths\.u_trc1\.gen_inv_stage\[90\]\.inv
*3918 u_core\.delay_paths\.u_trc1\.gen_inv_stage\[91\]\.inv
*3919 u_core\.delay_paths\.u_trc1\.gen_inv_stage\[92\]\.inv
*3920 u_core\.delay_paths\.u_trc1\.gen_inv_stage\[93\]\.inv
*3921 u_core\.delay_paths\.u_trc1\.gen_inv_stage\[94\]\.inv
*3922 u_core\.delay_paths\.u_trc1\.gen_inv_stage\[95\]\.inv
*3923 u_core\.delay_paths\.u_trc1\.gen_inv_stage\[96\]\.inv
*3924 u_core\.delay_paths\.u_trc1\.gen_inv_stage\[97\]\.inv
*3925 u_core\.delay_paths\.u_trc1\.gen_inv_stage\[98\]\.inv
*3926 u_core\.delay_paths\.u_trc1\.gen_inv_stage\[99\]\.inv
*3927 u_core\.delay_paths\.u_trc1\.gen_inv_stage\[9\]\.inv
*3928 u_core\.delay_paths\.u_trc2\.gen_inv_stage\[0\]\.inv
*3929 u_core\.delay_paths\.u_trc2\.gen_inv_stage\[10\]\.inv
*3930 u_core\.delay_paths\.u_trc2\.gen_inv_stage\[11\]\.inv
*3931 u_core\.delay_paths\.u_trc2\.gen_inv_stage\[12\]\.inv
*3932 u_core\.delay_paths\.u_trc2\.gen_inv_stage\[13\]\.inv
*3933 u_core\.delay_paths\.u_trc2\.gen_inv_stage\[14\]\.inv
*3934 u_core\.delay_paths\.u_trc2\.gen_inv_stage\[15\]\.inv
*3935 u_core\.delay_paths\.u_trc2\.gen_inv_stage\[16\]\.inv
*3936 u_core\.delay_paths\.u_trc2\.gen_inv_stage\[17\]\.inv
*3937 u_core\.delay_paths\.u_trc2\.gen_inv_stage\[18\]\.inv
*3938 u_core\.delay_paths\.u_trc2\.gen_inv_stage\[19\]\.inv
*3939 u_core\.delay_paths\.u_trc2\.gen_inv_stage\[1\]\.inv
*3940 u_core\.delay_paths\.u_trc2\.gen_inv_stage\[20\]\.inv
*3941 u_core\.delay_paths\.u_trc2\.gen_inv_stage\[21\]\.inv
*3942 u_core\.delay_paths\.u_trc2\.gen_inv_stage\[22\]\.inv
*3943 u_core\.delay_paths\.u_trc2\.gen_inv_stage\[23\]\.inv
*3944 u_core\.delay_paths\.u_trc2\.gen_inv_stage\[24\]\.inv
*3945 u_core\.delay_paths\.u_trc2\.gen_inv_stage\[25\]\.inv
*3946 u_core\.delay_paths\.u_trc2\.gen_inv_stage\[26\]\.inv
*3947 u_core\.delay_paths\.u_trc2\.gen_inv_stage\[27\]\.inv
*3948 u_core\.delay_paths\.u_trc2\.gen_inv_stage\[28\]\.inv
*3949 u_core\.delay_paths\.u_trc2\.gen_inv_stage\[29\]\.inv
*3950 u_core\.delay_paths\.u_trc2\.gen_inv_stage\[2\]\.inv
*3951 u_core\.delay_paths\.u_trc2\.gen_inv_stage\[30\]\.inv
*3952 u_core\.delay_paths\.u_trc2\.gen_inv_stage\[31\]\.inv
*3953 u_core\.delay_paths\.u_trc2\.gen_inv_stage\[32\]\.inv
*3954 u_core\.delay_paths\.u_trc2\.gen_inv_stage\[33\]\.inv
*3955 u_core\.delay_paths\.u_trc2\.gen_inv_stage\[34\]\.inv
*3956 u_core\.delay_paths\.u_trc2\.gen_inv_stage\[35\]\.inv
*3957 u_core\.delay_paths\.u_trc2\.gen_inv_stage\[36\]\.inv
*3958 u_core\.delay_paths\.u_trc2\.gen_inv_stage\[37\]\.inv
*3959 u_core\.delay_paths\.u_trc2\.gen_inv_stage\[38\]\.inv
*3960 u_core\.delay_paths\.u_trc2\.gen_inv_stage\[39\]\.inv
*3961 u_core\.delay_paths\.u_trc2\.gen_inv_stage\[3\]\.inv
*3962 u_core\.delay_paths\.u_trc2\.gen_inv_stage\[40\]\.inv
*3963 u_core\.delay_paths\.u_trc2\.gen_inv_stage\[41\]\.inv
*3964 u_core\.delay_paths\.u_trc2\.gen_inv_stage\[42\]\.inv
*3965 u_core\.delay_paths\.u_trc2\.gen_inv_stage\[43\]\.inv
*3966 u_core\.delay_paths\.u_trc2\.gen_inv_stage\[44\]\.inv
*3967 u_core\.delay_paths\.u_trc2\.gen_inv_stage\[45\]\.inv
*3968 u_core\.delay_paths\.u_trc2\.gen_inv_stage\[46\]\.inv
*3969 u_core\.delay_paths\.u_trc2\.gen_inv_stage\[47\]\.inv
*3970 u_core\.delay_paths\.u_trc2\.gen_inv_stage\[48\]\.inv
*3971 u_core\.delay_paths\.u_trc2\.gen_inv_stage\[49\]\.inv
*3972 u_core\.delay_paths\.u_trc2\.gen_inv_stage\[4\]\.inv
*3973 u_core\.delay_paths\.u_trc2\.gen_inv_stage\[50\]\.inv
*3974 u_core\.delay_paths\.u_trc2\.gen_inv_stage\[51\]\.inv
*3975 u_core\.delay_paths\.u_trc2\.gen_inv_stage\[52\]\.inv
*3976 u_core\.delay_paths\.u_trc2\.gen_inv_stage\[53\]\.inv
*3977 u_core\.delay_paths\.u_trc2\.gen_inv_stage\[54\]\.inv
*3978 u_core\.delay_paths\.u_trc2\.gen_inv_stage\[55\]\.inv
*3979 u_core\.delay_paths\.u_trc2\.gen_inv_stage\[56\]\.inv
*3980 u_core\.delay_paths\.u_trc2\.gen_inv_stage\[57\]\.inv
*3981 u_core\.delay_paths\.u_trc2\.gen_inv_stage\[58\]\.inv
*3982 u_core\.delay_paths\.u_trc2\.gen_inv_stage\[59\]\.inv
*3983 u_core\.delay_paths\.u_trc2\.gen_inv_stage\[5\]\.inv
*3984 u_core\.delay_paths\.u_trc2\.gen_inv_stage\[60\]\.inv
*3985 u_core\.delay_paths\.u_trc2\.gen_inv_stage\[61\]\.inv
*3986 u_core\.delay_paths\.u_trc2\.gen_inv_stage\[62\]\.inv
*3987 u_core\.delay_paths\.u_trc2\.gen_inv_stage\[63\]\.inv
*3988 u_core\.delay_paths\.u_trc2\.gen_inv_stage\[64\]\.inv
*3989 u_core\.delay_paths\.u_trc2\.gen_inv_stage\[65\]\.inv
*3990 u_core\.delay_paths\.u_trc2\.gen_inv_stage\[66\]\.inv
*3991 u_core\.delay_paths\.u_trc2\.gen_inv_stage\[67\]\.inv
*3992 u_core\.delay_paths\.u_trc2\.gen_inv_stage\[68\]\.inv
*3993 u_core\.delay_paths\.u_trc2\.gen_inv_stage\[69\]\.inv
*3994 u_core\.delay_paths\.u_trc2\.gen_inv_stage\[6\]\.inv
*3995 u_core\.delay_paths\.u_trc2\.gen_inv_stage\[70\]\.inv
*3996 u_core\.delay_paths\.u_trc2\.gen_inv_stage\[71\]\.inv
*3997 u_core\.delay_paths\.u_trc2\.gen_inv_stage\[72\]\.inv
*3998 u_core\.delay_paths\.u_trc2\.gen_inv_stage\[73\]\.inv
*3999 u_core\.delay_paths\.u_trc2\.gen_inv_stage\[74\]\.inv
*4000 u_core\.delay_paths\.u_trc2\.gen_inv_stage\[75\]\.inv
*4001 u_core\.delay_paths\.u_trc2\.gen_inv_stage\[76\]\.inv
*4002 u_core\.delay_paths\.u_trc2\.gen_inv_stage\[77\]\.inv
*4003 u_core\.delay_paths\.u_trc2\.gen_inv_stage\[78\]\.inv
*4004 u_core\.delay_paths\.u_trc2\.gen_inv_stage\[79\]\.inv
*4005 u_core\.delay_paths\.u_trc2\.gen_inv_stage\[7\]\.inv
*4006 u_core\.delay_paths\.u_trc2\.gen_inv_stage\[80\]\.inv
*4007 u_core\.delay_paths\.u_trc2\.gen_inv_stage\[81\]\.inv
*4008 u_core\.delay_paths\.u_trc2\.gen_inv_stage\[82\]\.inv
*4009 u_core\.delay_paths\.u_trc2\.gen_inv_stage\[83\]\.inv
*4010 u_core\.delay_paths\.u_trc2\.gen_inv_stage\[84\]\.inv
*4011 u_core\.delay_paths\.u_trc2\.gen_inv_stage\[85\]\.inv
*4012 u_core\.delay_paths\.u_trc2\.gen_inv_stage\[86\]\.inv
*4013 u_core\.delay_paths\.u_trc2\.gen_inv_stage\[87\]\.inv
*4014 u_core\.delay_paths\.u_trc2\.gen_inv_stage\[88\]\.inv
*4015 u_core\.delay_paths\.u_trc2\.gen_inv_stage\[89\]\.inv
*4016 u_core\.delay_paths\.u_trc2\.gen_inv_stage\[8\]\.inv
*4017 u_core\.delay_paths\.u_trc2\.gen_inv_stage\[90\]\.inv
*4018 u_core\.delay_paths\.u_trc2\.gen_inv_stage\[91\]\.inv
*4019 u_core\.delay_paths\.u_trc2\.gen_inv_stage\[92\]\.inv
*4020 u_core\.delay_paths\.u_trc2\.gen_inv_stage\[93\]\.inv
*4021 u_core\.delay_paths\.u_trc2\.gen_inv_stage\[94\]\.inv
*4022 u_core\.delay_paths\.u_trc2\.gen_inv_stage\[95\]\.inv
*4023 u_core\.delay_paths\.u_trc2\.gen_inv_stage\[9\]\.inv
*4024 u_core\.delay_paths\.u_trc3\.gen_inv_stage\[0\]\.inv
*4025 u_core\.delay_paths\.u_trc3\.gen_inv_stage\[10\]\.inv
*4026 u_core\.delay_paths\.u_trc3\.gen_inv_stage\[11\]\.inv
*4027 u_core\.delay_paths\.u_trc3\.gen_inv_stage\[12\]\.inv
*4028 u_core\.delay_paths\.u_trc3\.gen_inv_stage\[13\]\.inv
*4029 u_core\.delay_paths\.u_trc3\.gen_inv_stage\[14\]\.inv
*4030 u_core\.delay_paths\.u_trc3\.gen_inv_stage\[15\]\.inv
*4031 u_core\.delay_paths\.u_trc3\.gen_inv_stage\[16\]\.inv
*4032 u_core\.delay_paths\.u_trc3\.gen_inv_stage\[17\]\.inv
*4033 u_core\.delay_paths\.u_trc3\.gen_inv_stage\[18\]\.inv
*4034 u_core\.delay_paths\.u_trc3\.gen_inv_stage\[19\]\.inv
*4035 u_core\.delay_paths\.u_trc3\.gen_inv_stage\[1\]\.inv
*4036 u_core\.delay_paths\.u_trc3\.gen_inv_stage\[20\]\.inv
*4037 u_core\.delay_paths\.u_trc3\.gen_inv_stage\[21\]\.inv
*4038 u_core\.delay_paths\.u_trc3\.gen_inv_stage\[22\]\.inv
*4039 u_core\.delay_paths\.u_trc3\.gen_inv_stage\[23\]\.inv
*4040 u_core\.delay_paths\.u_trc3\.gen_inv_stage\[24\]\.inv
*4041 u_core\.delay_paths\.u_trc3\.gen_inv_stage\[25\]\.inv
*4042 u_core\.delay_paths\.u_trc3\.gen_inv_stage\[26\]\.inv
*4043 u_core\.delay_paths\.u_trc3\.gen_inv_stage\[27\]\.inv
*4044 u_core\.delay_paths\.u_trc3\.gen_inv_stage\[28\]\.inv
*4045 u_core\.delay_paths\.u_trc3\.gen_inv_stage\[29\]\.inv
*4046 u_core\.delay_paths\.u_trc3\.gen_inv_stage\[2\]\.inv
*4047 u_core\.delay_paths\.u_trc3\.gen_inv_stage\[30\]\.inv
*4048 u_core\.delay_paths\.u_trc3\.gen_inv_stage\[31\]\.inv
*4049 u_core\.delay_paths\.u_trc3\.gen_inv_stage\[32\]\.inv
*4050 u_core\.delay_paths\.u_trc3\.gen_inv_stage\[33\]\.inv
*4051 u_core\.delay_paths\.u_trc3\.gen_inv_stage\[34\]\.inv
*4052 u_core\.delay_paths\.u_trc3\.gen_inv_stage\[35\]\.inv
*4053 u_core\.delay_paths\.u_trc3\.gen_inv_stage\[36\]\.inv
*4054 u_core\.delay_paths\.u_trc3\.gen_inv_stage\[37\]\.inv
*4055 u_core\.delay_paths\.u_trc3\.gen_inv_stage\[38\]\.inv
*4056 u_core\.delay_paths\.u_trc3\.gen_inv_stage\[39\]\.inv
*4057 u_core\.delay_paths\.u_trc3\.gen_inv_stage\[3\]\.inv
*4058 u_core\.delay_paths\.u_trc3\.gen_inv_stage\[40\]\.inv
*4059 u_core\.delay_paths\.u_trc3\.gen_inv_stage\[41\]\.inv
*4060 u_core\.delay_paths\.u_trc3\.gen_inv_stage\[42\]\.inv
*4061 u_core\.delay_paths\.u_trc3\.gen_inv_stage\[43\]\.inv
*4062 u_core\.delay_paths\.u_trc3\.gen_inv_stage\[44\]\.inv
*4063 u_core\.delay_paths\.u_trc3\.gen_inv_stage\[45\]\.inv
*4064 u_core\.delay_paths\.u_trc3\.gen_inv_stage\[46\]\.inv
*4065 u_core\.delay_paths\.u_trc3\.gen_inv_stage\[47\]\.inv
*4066 u_core\.delay_paths\.u_trc3\.gen_inv_stage\[4\]\.inv
*4067 u_core\.delay_paths\.u_trc3\.gen_inv_stage\[5\]\.inv
*4068 u_core\.delay_paths\.u_trc3\.gen_inv_stage\[6\]\.inv
*4069 u_core\.delay_paths\.u_trc3\.gen_inv_stage\[7\]\.inv
*4070 u_core\.delay_paths\.u_trc3\.gen_inv_stage\[8\]\.inv
*4071 u_core\.delay_paths\.u_trc3\.gen_inv_stage\[9\]\.inv
*4072 wire11
*4073 wire16
*4074 wire7

*PORTS
iCLK I
iRST I
iSPI_CS I
iSPI_MOSI I
iSPI_SCK I
oINTERRUPT_CS O
oINTERRUPT_IE O
oINTERRUPT_IN I
oINTERRUPT_OE O
oINTERRUPT_OUT O
oINTERRUPT_PD O
oINTERRUPT_PU O
oINTERRUPT_SL O
oSPI_MISO_CS O
oSPI_MISO_IE O
oSPI_MISO_IN I
oSPI_MISO_OE O
oSPI_MISO_OUT O
oSPI_MISO_PD O
oSPI_MISO_PU O
oSPI_MISO_SL O

*D_NET *3 0.0207531
*CONN
*P iCLK I
*I *3529:I I *D gf180mcu_fd_sc_mcu7t5v0__clkbuf_16
*CAP
1 iCLK 0.00617113
2 *3529:I 0.00167841
3 *3:18 0.00784955
4 *3529:I *3273:I1 0
5 *3529:I *3368:A3 7.09316e-06
6 *3529:I *3378:A2 0.000255452
7 *3529:I *3381:A2 0.000126949
8 *3529:I *3465:D 2.49879e-05
9 *3529:I *3471:RN 0.000111867
10 *3529:I *3472:D 6.73926e-05
11 *3529:I *3472:CLK 0
12 *3529:I *3571:I 0
13 *3529:I *338:10 0.000109659
14 *3529:I *385:8 5.09937e-05
15 *3529:I *386:6 2.22657e-05
16 *3529:I *386:49 9.0178e-05
17 *3529:I *387:18 5.23776e-05
18 *3529:I *387:22 4.71447e-05
19 *3529:I *387:40 0.000356792
20 *3529:I *391:53 0
21 *3:18 *3193:A1 4.84746e-05
22 *3:18 *3211:A1 0.000117625
23 *3:18 *3214:A1 5.69791e-05
24 *3:18 *3237:B 0.000210535
25 *3:18 *3246:A1 1.54509e-05
26 *3:18 *3323:I0 0.00010146
27 *3:18 *3328:A1 5.58073e-05
28 *3:18 *3329:A1 0.000692208
29 *3:18 *3368:A3 8.37217e-05
30 *3:18 *3369:A1 0
31 *3:18 *3369:B2 1.72912e-05
32 *3:18 *3377:A1 0.000201948
33 *3:18 *3378:A2 2.15256e-05
34 *3:18 *3492:RN 0
35 *3:18 *3492:CLK 0
36 *3:18 *3516:RN 2.01247e-05
37 *3:18 *3517:RN 5.34623e-05
38 *3:18 *3553:I 0.000578735
39 *3:18 *4073:I 0.000314953
40 *3:18 *126:22 4.52293e-05
41 *3:18 *128:10 0.000308027
42 *3:18 *204:12 0
43 *3:18 *323:104 0
44 *3:18 *336:8 0.000218349
45 *3:18 *336:19 0.000158129
46 *3:18 *336:32 0.000109837
47 *3:18 *343:472 0
48 *3:18 *343:474 0
49 *3:18 *343:699 0
50 *3:18 *389:15 6.12935e-05
51 *3:18 *393:6 0.000115177
52 *3:18 *393:10 2.976e-05
53 *3:18 *405:8 5.40492e-05
54 *3:18 *409:12 4.06692e-05
*RES
1 iCLK *3:18 49.91 
2 *3:18 *3529:I 17.116 
*END

*D_NET *4 0.00125007
*CONN
*P iRST I
*I *3561:I I *D gf180mcu_fd_sc_mcu7t5v0__buf_8
*CAP
1 iRST 0.000559781
2 *3561:I 0.000559781
3 *3561:I *3434:CLK 0.000114133
4 *3561:I *326:114 1.63721e-05
*RES
1 iRST *3561:I 13.0999 
*END

*D_NET *5 0.00110898
*CONN
*P iSPI_CS I
*I *3562:I I *D gf180mcu_fd_sc_mcu7t5v0__buf_1
*CAP
1 iSPI_CS 0.00025467
2 *3562:I 0.00025467
3 *3562:I *3409:I 8.16881e-05
4 *3562:I *3440:RN 2.6126e-05
5 *3562:I *3564:I 0.000491827
*RES
1 iSPI_CS *3562:I 11.9599 
*END

*D_NET *6 0.0015299
*CONN
*P iSPI_MOSI I
*I *3563:I I *D gf180mcu_fd_sc_mcu7t5v0__dlyb_1
*CAP
1 iSPI_MOSI 0.000764948
2 *3563:I 0.000764948
3 *3563:I *3857:I 0
4 *3563:I *3858:I 0
*RES
1 iSPI_MOSI *3563:I 9.706 
*END

*D_NET *7 0.00101169
*CONN
*P iSPI_SCK I
*I *3564:I I *D gf180mcu_fd_sc_mcu7t5v0__buf_1
*CAP
1 iSPI_SCK 0.000222394
2 *3564:I 0.000222394
3 *3564:I *3409:I 7.50749e-05
4 *3562:I *3564:I 0.000491827
*RES
1 iSPI_SCK *3564:I 11.8079 
*END

*D_NET *8 0.0019652
*CONN
*P oINTERRUPT_CS O
*I *3580:ZN O *D gf180mcu_fd_sc_mcu7t5v0__tiel
*CAP
1 oINTERRUPT_CS 0.000702437
2 *3580:ZN 0.000702437
3 oINTERRUPT_CS oSPI_MISO_PU 0.000560323
*RES
1 *3580:ZN oINTERRUPT_CS 10.8799 
*END

*D_NET *9 0.00137022
*CONN
*P oINTERRUPT_IE O
*I *3581:ZN O *D gf180mcu_fd_sc_mcu7t5v0__tiel
*CAP
1 oINTERRUPT_IE 0.000425763
2 *3581:ZN 0.000425763
3 oINTERRUPT_IE oINTERRUPT_PD 0.000518693
*RES
1 *3581:ZN oINTERRUPT_IE 12.762 
*END

*D_NET *11 0.00161554
*CONN
*P oINTERRUPT_OE O
*I *3590:Z O *D gf180mcu_fd_sc_mcu7t5v0__tieh
*CAP
1 oINTERRUPT_OE 0.00080006
2 *3590:Z 0.00080006
3 oINTERRUPT_OE *3634:I 2.57058e-06
4 oINTERRUPT_OE *3635:I 1.28529e-05
*RES
1 *3590:Z oINTERRUPT_OE 9.934 
*END

*D_NET *12 0.000700564
*CONN
*P oINTERRUPT_OUT O
*I *4074:Z O *D gf180mcu_fd_sc_mcu7t5v0__clkbuf_3
*CAP
1 oINTERRUPT_OUT 0.000350282
2 *4074:Z 0.000350282
*RES
1 *4074:Z oINTERRUPT_OUT 11.5799 
*END

*D_NET *13 0.00100318
*CONN
*P oINTERRUPT_PD O
*I *3582:ZN O *D gf180mcu_fd_sc_mcu7t5v0__tiel
*CAP
1 oINTERRUPT_PD 0.000242242
2 *3582:ZN 0.000242242
3 oINTERRUPT_IE oINTERRUPT_PD 0.000518693
*RES
1 *3582:ZN oINTERRUPT_PD 11.85 
*END

*D_NET *14 0.00133004
*CONN
*P oINTERRUPT_PU O
*I *3583:ZN O *D gf180mcu_fd_sc_mcu7t5v0__tiel
*CAP
1 oINTERRUPT_PU 0.000665021
2 *3583:ZN 0.000665021
*RES
1 *3583:ZN oINTERRUPT_PU 8.946 
*END

*D_NET *15 0.00184482
*CONN
*P oINTERRUPT_SL O
*I *3584:ZN O *D gf180mcu_fd_sc_mcu7t5v0__tiel
*CAP
1 oINTERRUPT_SL 0.00092241
2 *3584:ZN 0.00092241
3 oINTERRUPT_SL *3622:I 0
*RES
1 *3584:ZN oINTERRUPT_SL 19.694 
*END

*D_NET *16 0.00210658
*CONN
*P oSPI_MISO_CS O
*I *3585:ZN O *D gf180mcu_fd_sc_mcu7t5v0__tiel
*CAP
1 oSPI_MISO_CS 0.00066146
2 *3585:ZN 0.00066146
3 oSPI_MISO_CS oSPI_MISO_IE 0.00078366
*RES
1 *3585:ZN oSPI_MISO_CS 10.8799 
*END

*D_NET *17 0.00219772
*CONN
*P oSPI_MISO_IE O
*I *3586:ZN O *D gf180mcu_fd_sc_mcu7t5v0__tiel
*CAP
1 oSPI_MISO_IE 0.000707031
2 *3586:ZN 0.000707031
3 oSPI_MISO_CS oSPI_MISO_IE 0.00078366
*RES
1 *3586:ZN oSPI_MISO_IE 11.1839 
*END

*D_NET *19 0.00192344
*CONN
*P oSPI_MISO_OE O
*I *3591:Z O *D gf180mcu_fd_sc_mcu7t5v0__tieh
*CAP
1 oSPI_MISO_OE 0.0005747
2 *3591:Z 0.0005747
3 oSPI_MISO_OE oSPI_MISO_PD 0.000774041
*RES
1 *3591:Z oSPI_MISO_OE 10.2719 
*END

*D_NET *20 0.00220639
*CONN
*P oSPI_MISO_OUT O
*I *4072:Z O *D gf180mcu_fd_sc_mcu7t5v0__clkbuf_3
*CAP
1 oSPI_MISO_OUT 0.000927377
2 *4072:Z 0.000927377
3 oSPI_MISO_OUT *3271:A1 0
4 oSPI_MISO_OUT *3579:I 2.57058e-06
5 oSPI_MISO_OUT *4072:I 0.000349066
*RES
1 *4072:Z oSPI_MISO_OUT 24.8359 
*END

*D_NET *21 0.00198773
*CONN
*P oSPI_MISO_PD O
*I *3587:ZN O *D gf180mcu_fd_sc_mcu7t5v0__tiel
*CAP
1 oSPI_MISO_PD 0.000606842
2 *3587:ZN 0.000606842
3 oSPI_MISO_OE oSPI_MISO_PD 0.000774041
*RES
1 *3587:ZN oSPI_MISO_PD 10.4239 
*END

*D_NET *22 0.0019652
*CONN
*P oSPI_MISO_PU O
*I *3588:ZN O *D gf180mcu_fd_sc_mcu7t5v0__tiel
*CAP
1 oSPI_MISO_PU 0.000702437
2 *3588:ZN 0.000702437
3 oINTERRUPT_CS oSPI_MISO_PU 0.000560323
*RES
1 *3588:ZN oSPI_MISO_PU 10.8799 
*END

*D_NET *23 0.000807058
*CONN
*P oSPI_MISO_SL O
*I *3589:ZN O *D gf180mcu_fd_sc_mcu7t5v0__tiel
*CAP
1 oSPI_MISO_SL 0.000403529
2 *3589:ZN 0.000403529
*RES
1 *3589:ZN oSPI_MISO_SL 11.546 
*END

*D_NET *24 0.000764222
*CONN
*I *3512:D I *D gf180mcu_fd_sc_mcu7t5v0__dffrnq_1
*I *3238:ZN O *D gf180mcu_fd_sc_mcu7t5v0__aoi21_1
*CAP
1 *3512:D 0.000286691
2 *3238:ZN 0.000286691
3 *3512:D *3238:A2 0
4 *3512:D *3247:A3 2.529e-05
5 *3512:D *3247:B 9.90572e-05
6 *3512:D *3512:CLK 5.76373e-06
7 *3512:D *324:122 6.07288e-05
*RES
1 *3238:ZN *3512:D 19.976 
*END

*D_NET *25 0.00250767
*CONN
*I *3513:D I *D gf180mcu_fd_sc_mcu7t5v0__dffrnq_2
*I *3229:ZN O *D gf180mcu_fd_sc_mcu7t5v0__aoi211_1
*CAP
1 *3513:D 0.000792055
2 *3229:ZN 0.000792055
3 *3513:D *3126:I 0.000251816
4 *3513:D *3277:S0 4.58601e-06
5 *3513:D *3290:A2 1.78413e-05
6 *3513:D *3480:D 0.000407095
7 *3513:D *3513:CLK 3.08777e-05
8 *3513:D *253:14 3.45911e-05
9 *3513:D *256:21 0
10 *3513:D *392:50 8.8425e-05
11 *3513:D *413:10 6.12154e-05
12 *3513:D *413:12 2.71172e-05
*RES
1 *3229:ZN *3513:D 24.384 
*END

*D_NET *26 0.00119874
*CONN
*I *3516:D I *D gf180mcu_fd_sc_mcu7t5v0__dffrnq_1
*I *3220:ZN O *D gf180mcu_fd_sc_mcu7t5v0__nor4_1
*CAP
1 *3516:D 0.000159919
2 *3220:ZN 0.000159919
3 *3516:D *3125:I 0
4 *3516:D *3220:A1 0.000498937
5 *3516:D *324:122 0.000379962
*RES
1 *3220:ZN *3516:D 11.356 
*END

*D_NET *27 0.00175202
*CONN
*I *3514:D I *D gf180mcu_fd_sc_mcu7t5v0__dffrnq_1
*I *3247:ZN O *D gf180mcu_fd_sc_mcu7t5v0__oai31_1
*CAP
1 *3514:D 0.000642853
2 *3247:ZN 0.000642853
3 *3514:D *3234:A2 2.30549e-05
4 *3514:D *3238:A2 8.95196e-05
5 *3514:D *3325:I0 3.95687e-05
6 *3514:D *3512:CLK 0.000314174
7 *3514:D *374:90 0
8 *3514:D *407:8 0
*RES
1 *3247:ZN *3514:D 13.788 
*END

*D_NET *28 0.00217786
*CONN
*I *3515:D I *D gf180mcu_fd_sc_mcu7t5v0__dffrnq_1
*I *3245:ZN O *D gf180mcu_fd_sc_mcu7t5v0__clkinv_1
*CAP
1 *3515:D 0.000303098
2 *3245:ZN 0.000303098
3 *3515:D *3242:A1 2.54562e-05
4 *3515:D *3242:A2 0.000431535
5 *3515:D *3244:A2 0.000315892
6 *3515:D *3245:I 0.000426942
7 *3515:D *3280:A1 8.84331e-05
8 *3515:D *3550:I 0.000259761
9 *3515:D *255:10 2.36438e-05
*RES
1 *3245:ZN *3515:D 21.648 
*END

*D_NET *29 0.000475295
*CONN
*I *3437:D I *D gf180mcu_fd_sc_mcu7t5v0__dffrnq_1
*I *3241:ZN O *D gf180mcu_fd_sc_mcu7t5v0__clkinv_1
*CAP
1 *3437:D 0.000208073
2 *3241:ZN 0.000208073
3 *3437:D *932:25 5.91493e-05
*RES
1 *3241:ZN *3437:D 10.368 
*END

*D_NET *30 0.000357074
*CONN
*I *3419:D I *D gf180mcu_fd_sc_mcu7t5v0__dffrnq_2
*I *3116:ZN O *D gf180mcu_fd_sc_mcu7t5v0__clkinv_1
*CAP
1 *3419:D 0.000177251
2 *3116:ZN 0.000177251
3 *3419:D *3419:CLK 2.57058e-06
*RES
1 *3116:ZN *3419:D 10.064 
*END

*D_NET *31 0.00042128
*CONN
*I *3421:D I *D gf180mcu_fd_sc_mcu7t5v0__dffrnq_1
*I *3117:ZN O *D gf180mcu_fd_sc_mcu7t5v0__clkinv_1
*CAP
1 *3421:D 0.000198424
2 *3117:ZN 0.000198424
3 *3421:D *3420:D 1.98468e-05
4 *3421:D *3421:CLK 4.58601e-06
5 *3421:D *3839:I 0
*RES
1 *3117:ZN *3421:D 10.216 
*END

*D_NET *32 0.000419844
*CONN
*I *3423:D I *D gf180mcu_fd_sc_mcu7t5v0__dffrnq_1
*I *3118:ZN O *D gf180mcu_fd_sc_mcu7t5v0__clkinv_1
*CAP
1 *3423:D 0.000209922
2 *3118:ZN 0.000209922
*RES
1 *3118:ZN *3423:D 10.216 
*END

*D_NET *33 0.00040615
*CONN
*I *3425:D I *D gf180mcu_fd_sc_mcu7t5v0__dffrnq_1
*I *3119:ZN O *D gf180mcu_fd_sc_mcu7t5v0__clkinv_1
*CAP
1 *3425:D 0.000178555
2 *3119:ZN 0.000178555
3 *3425:D *3425:CLK 1.02578e-05
4 *3425:D *4024:I 0
5 *3425:D *4035:I 3.87828e-05
*RES
1 *3119:ZN *3425:D 10.216 
*END

*D_NET *34 0.0014766
*CONN
*I *3442:D I *D gf180mcu_fd_sc_mcu7t5v0__dffnrnq_1
*I *3255:ZN O *D gf180mcu_fd_sc_mcu7t5v0__nor2_1
*CAP
1 *3442:D 0.000165588
2 *3255:ZN 0.000165588
3 *3442:D *3150:A1 1.15275e-05
4 *3442:D *3254:B1 0.000564624
5 *3442:D *3254:B2 8.62306e-05
6 *3442:D *3255:A1 0.000441063
7 *3442:D *3255:A2 5.76373e-06
8 *3442:D *3265:A1 0
9 *3442:D *3266:B2 2.02592e-05
10 *3442:D *3351:I1 1.5961e-05
*RES
1 *3255:ZN *3442:D 20.508 
*END

*D_NET *35 0.0014389
*CONN
*I *3443:D I *D gf180mcu_fd_sc_mcu7t5v0__dffnrnq_1
*I *3258:ZN O *D gf180mcu_fd_sc_mcu7t5v0__aoi22_1
*CAP
1 *3443:D 0.000134859
2 *3258:ZN 0.000134859
3 *3443:D *3256:A2 0.000248576
4 *3443:D *3258:A1 2.6126e-05
5 *3443:D *3258:B1 9.98614e-05
6 *3443:D *3442:CLKN 1.97747e-05
7 *3443:D *283:43 0.000474016
8 *3443:D *421:22 0.000300828
*RES
1 *3258:ZN *3443:D 11.356 
*END

*D_NET *36 0.000944705
*CONN
*I *3444:D I *D gf180mcu_fd_sc_mcu7t5v0__dffnrnq_1
*I *3261:ZN O *D gf180mcu_fd_sc_mcu7t5v0__aoi22_1
*CAP
1 *3444:D 0.000230246
2 *3261:ZN 0.000230246
3 *3444:D *3138:I 7.57767e-05
4 *3444:D *3260:B1 7.45328e-07
5 *3444:D *3261:A1 0.00020108
6 *3444:D *3411:I 6.07211e-05
7 *3444:D *3412:I 6.85351e-05
8 *3444:D *3444:CLKN 6.00599e-05
9 *3444:D *238:69 1.7295e-05
*RES
1 *3261:ZN *3444:D 11.128 
*END

*D_NET *37 0.00129657
*CONN
*I *3445:D I *D gf180mcu_fd_sc_mcu7t5v0__dffnrnq_1
*I *3264:ZN O *D gf180mcu_fd_sc_mcu7t5v0__aoi22_1
*CAP
1 *3445:D 0.000238341
2 *3264:ZN 0.000238341
3 *3445:D *3140:I 2.87815e-05
4 *3445:D *3264:A2 8.09693e-06
5 *3445:D *144:33 0.000783013
*RES
1 *3264:ZN *3445:D 11.508 
*END

*D_NET *38 0.000669602
*CONN
*I *3446:D I *D gf180mcu_fd_sc_mcu7t5v0__dffnrnq_1
*I *3266:ZN O *D gf180mcu_fd_sc_mcu7t5v0__aoi22_1
*CAP
1 *3446:D 6.08906e-05
2 *3266:ZN 6.08906e-05
3 *3446:D *3446:CLKN 0.000116355
4 *3446:D *238:44 0.000431466
*RES
1 *3266:ZN *3446:D 10.216 
*END

*D_NET *39 0.00149135
*CONN
*I *3447:D I *D gf180mcu_fd_sc_mcu7t5v0__dffnrnq_1
*I *3269:ZN O *D gf180mcu_fd_sc_mcu7t5v0__aoi22_1
*CAP
1 *3447:D 0.000261994
2 *3269:ZN 0.000261994
3 *3447:D *3269:A1 7.83779e-05
4 *3447:D *3271:A2 0.000492181
5 *3447:D *3448:D 0.000253993
6 *3447:D *238:122 0.000142809
*RES
1 *3269:ZN *3447:D 20.66 
*END

*D_NET *40 0.00131906
*CONN
*I *3448:D I *D gf180mcu_fd_sc_mcu7t5v0__dffnrnq_1
*I *3271:ZN O *D gf180mcu_fd_sc_mcu7t5v0__aoi22_1
*CAP
1 *3448:D 0.000430874
2 *3271:ZN 0.000430874
3 *3448:D *3269:A1 0
4 *3448:D *3271:A2 9.88736e-06
5 *3448:D *3447:CLKN 0.00018619
6 *3448:D *341:118 7.24161e-06
7 *3447:D *3448:D 0.000253993
*RES
1 *3271:ZN *3448:D 12.42 
*END

*D_NET *41 0.00280641
*CONN
*I *3177:A1 I *D gf180mcu_fd_sc_mcu7t5v0__nor2_1
*I *3441:D I *D gf180mcu_fd_sc_mcu7t5v0__dffrnq_1
*I *3175:Z O *D gf180mcu_fd_sc_mcu7t5v0__and3_1
*CAP
1 *3177:A1 0
2 *3441:D 0.000145911
3 *3175:Z 0.000640747
4 *41:12 0.000786658
5 *3441:D *3441:CLK 2.57058e-06
6 *3441:D *3545:I 0.000128363
7 *41:12 *3252:A1 0
8 *41:12 *3253:A1 0
9 *41:12 *3253:A2 0.00032464
10 *41:12 *3440:D 7.2647e-05
11 *41:12 *140:10 0.000232265
12 *41:12 *240:10 3.15412e-05
13 *41:12 *326:90 0
14 *41:12 *326:103 0
15 *41:12 *351:16 0
16 *41:12 *930:25 0.000317503
17 *41:12 *930:27 0.000123561
18 *41:12 *931:12 0
*RES
1 *3175:Z *41:12 18.82 
2 *41:12 *3441:D 5.64 
3 *41:12 *3177:A1 4.5 
*END

*D_NET *42 0.00141178
*CONN
*I *3250:A2 I *D gf180mcu_fd_sc_mcu7t5v0__or3_1
*I *3438:D I *D gf180mcu_fd_sc_mcu7t5v0__dffrnq_1
*I *3120:ZN O *D gf180mcu_fd_sc_mcu7t5v0__clkinv_1
*CAP
1 *3250:A2 0
2 *3438:D 0.000127163
3 *3120:ZN 5.68285e-05
4 *42:8 0.000183991
5 *3438:D *238:10 0.00032464
6 *3438:D *341:20 6.13012e-05
7 *3438:D *341:24 0
8 *3438:D *945:18 0.000340241
9 *42:8 *945:18 0.000317618
*RES
1 *3120:ZN *42:8 9.836 
2 *42:8 *3438:D 10.672 
3 *42:8 *3250:A2 9 
*END

*D_NET *43 0.00144351
*CONN
*I *3439:D I *D gf180mcu_fd_sc_mcu7t5v0__dffrnq_1
*I *3174:Z O *D gf180mcu_fd_sc_mcu7t5v0__xor2_1
*CAP
1 *3439:D 0.000275606
2 *3174:Z 0.000275606
3 *3439:D *3175:A3 0.000278996
4 *3439:D *3176:A1 8.8425e-05
5 *3439:D *341:13 5.86759e-05
6 *3439:D *341:20 5.76373e-06
7 *3439:D *947:12 0.000460436
*RES
1 *3174:Z *3439:D 20.736 
*END

*D_NET *44 0.00101294
*CONN
*I *3440:D I *D gf180mcu_fd_sc_mcu7t5v0__dffrnq_1
*I *3177:ZN O *D gf180mcu_fd_sc_mcu7t5v0__nor2_1
*CAP
1 *3440:D 0.000308514
2 *3177:ZN 0.000308514
3 *3440:D *3440:CLK 5.76373e-06
4 *3440:D *3573:I 0.000317503
5 *3440:D *351:16 0
6 *41:12 *3440:D 7.2647e-05
*RES
1 *3177:ZN *3440:D 20.432 
*END

*D_NET *45 0.00302009
*CONN
*I *3426:RN I *D gf180mcu_fd_sc_mcu7t5v0__dffrnq_1
*I *3144:ZN O *D gf180mcu_fd_sc_mcu7t5v0__clkinv_1
*CAP
1 *3426:RN 0.000875878
2 *3144:ZN 0.000875878
3 *3426:RN *3426:CLK 9.935e-05
4 *3426:RN *3427:RN 5.09739e-06
5 *3426:RN *3427:CLK 3.62183e-05
6 *3426:RN *3809:I 5.14116e-06
7 *3426:RN *3810:I 0.000193942
8 *3426:RN *3816:I 0
9 *3426:RN *3818:I 0.000377452
10 *3426:RN *3819:I 0.00022756
11 *3426:RN *351:40 1.45899e-05
12 *3426:RN *351:42 8.67656e-05
13 *3426:RN *958:12 2.11395e-05
14 *3426:RN *959:10 0.00020108
*RES
1 *3144:ZN *3426:RN 24.916 
*END

*D_NET *46 0.000652854
*CONN
*I *3427:RN I *D gf180mcu_fd_sc_mcu7t5v0__dffrnq_1
*I *3400:ZN O *D gf180mcu_fd_sc_mcu7t5v0__clkinv_1
*CAP
1 *3427:RN 0.000191932
2 *3400:ZN 0.000191932
3 *3427:RN *3426:CLK 0.000209085
4 *3427:RN *959:10 5.48085e-05
5 *3426:RN *3427:RN 5.09739e-06
*RES
1 *3400:ZN *3427:RN 10.52 
*END

*D_NET *47 0.000389982
*CONN
*I *3428:RN I *D gf180mcu_fd_sc_mcu7t5v0__dffrnq_1
*I *3401:ZN O *D gf180mcu_fd_sc_mcu7t5v0__clkinv_1
*CAP
1 *3428:RN 0.000194991
2 *3401:ZN 0.000194991
*RES
1 *3401:ZN *3428:RN 9.988 
*END

*D_NET *48 0.00100972
*CONN
*I *3429:RN I *D gf180mcu_fd_sc_mcu7t5v0__dffrnq_1
*I *3402:ZN O *D gf180mcu_fd_sc_mcu7t5v0__clkinv_1
*CAP
1 *3429:RN 0.000262853
2 *3402:ZN 0.000262853
3 *3429:RN *3348:I0 0
4 *3429:RN *3402:I 0.00020108
5 *3429:RN *340:61 0.000282935
*RES
1 *3402:ZN *3429:RN 20.584 
*END

*D_NET *49 0.00103322
*CONN
*I *3430:RN I *D gf180mcu_fd_sc_mcu7t5v0__dffrnq_1
*I *3403:ZN O *D gf180mcu_fd_sc_mcu7t5v0__clkinv_1
*CAP
1 *3430:RN 0.00024005
2 *3403:ZN 0.00024005
3 *3430:RN *3431:CLK 0
4 *3430:RN *340:61 0.000387773
5 *3430:RN *351:28 5.25777e-05
6 *3430:RN *961:14 0.000109488
7 *3430:RN *962:12 3.2823e-06
*RES
1 *3403:ZN *3430:RN 20.128 
*END

*D_NET *50 0.000708944
*CONN
*I *3431:RN I *D gf180mcu_fd_sc_mcu7t5v0__dffrnq_1
*I *3404:ZN O *D gf180mcu_fd_sc_mcu7t5v0__clkinv_1
*CAP
1 *3431:RN 0.000226615
2 *3404:ZN 0.000226615
3 *3431:RN *3432:D 0
4 *3431:RN *340:57 0.000255714
*RES
1 *3404:ZN *3431:RN 10.596 
*END

*D_NET *51 0.000414658
*CONN
*I *3432:RN I *D gf180mcu_fd_sc_mcu7t5v0__dffrnq_1
*I *3405:ZN O *D gf180mcu_fd_sc_mcu7t5v0__clkinv_1
*CAP
1 *3432:RN 0.00019925
2 *3405:ZN 0.00019925
3 *3432:RN *340:33 1.61588e-05
4 *3432:RN *964:8 0
*RES
1 *3405:ZN *3432:RN 10.216 
*END

*D_NET *52 0.00116029
*CONN
*I *3433:RN I *D gf180mcu_fd_sc_mcu7t5v0__dffrnq_1
*I *3406:ZN O *D gf180mcu_fd_sc_mcu7t5v0__clkinv_1
*CAP
1 *3433:RN 0.000207054
2 *3406:ZN 0.000207054
3 *3433:RN *3239:A2 5.09442e-06
4 *3433:RN *3547:I 0.00033338
5 *3433:RN *340:27 0.000407705
*RES
1 *3406:ZN *3433:RN 19.976 
*END

*D_NET *53 0.000457917
*CONN
*I *3438:RN I *D gf180mcu_fd_sc_mcu7t5v0__dffrnq_1
*I *3407:ZN O *D gf180mcu_fd_sc_mcu7t5v0__clkinv_1
*CAP
1 *3438:RN 0.000134025
2 *3407:ZN 0.000134025
3 *3438:RN *342:95 1.02578e-05
4 *3438:RN *342:106 0.000179609
*RES
1 *3407:ZN *3438:RN 10.216 
*END

*D_NET *54 0.000235385
*CONN
*I *3439:RN I *D gf180mcu_fd_sc_mcu7t5v0__dffrnq_1
*I *3408:ZN O *D gf180mcu_fd_sc_mcu7t5v0__clkinv_1
*CAP
1 *3439:RN 0.00010463
2 *3408:ZN 0.00010463
3 *3439:RN *342:12 2.6126e-05
4 *3439:RN *342:30 0
*RES
1 *3408:ZN *3439:RN 9.532 
*END

*D_NET *55 0.00165129
*CONN
*I *3440:RN I *D gf180mcu_fd_sc_mcu7t5v0__dffrnq_1
*I *3409:ZN O *D gf180mcu_fd_sc_mcu7t5v0__clkinv_1
*CAP
1 *3440:RN 0.000400699
2 *3409:ZN 0.000400699
3 *3440:RN *3409:I 0.000459669
4 *3440:RN *3574:I 0.000148623
5 *3440:RN *340:17 0.000215472
6 *3440:RN *351:10 0
7 *3562:I *3440:RN 2.6126e-05
*RES
1 *3409:ZN *3440:RN 21.572 
*END

*D_NET *56 0.000757759
*CONN
*I *3441:RN I *D gf180mcu_fd_sc_mcu7t5v0__dffrnq_1
*I *3410:ZN O *D gf180mcu_fd_sc_mcu7t5v0__clkinv_1
*CAP
1 *3441:RN 0.000208854
2 *3410:ZN 0.000208854
3 *3441:RN *3435:D 0.000193942
4 *3441:RN *340:17 7.30256e-05
5 *3441:RN *340:27 7.30839e-05
*RES
1 *3410:ZN *3441:RN 19.824 
*END

*D_NET *57 0.000533528
*CONN
*I *3442:RN I *D gf180mcu_fd_sc_mcu7t5v0__dffnrnq_1
*I *3411:ZN O *D gf180mcu_fd_sc_mcu7t5v0__clkinv_1
*CAP
1 *3442:RN 0.000124221
2 *3411:ZN 0.000124221
3 *3442:RN *3254:A2 0.000171927
4 *3442:RN *3256:A2 9.88736e-06
5 *3442:RN *283:43 0.000103272
*RES
1 *3411:ZN *3442:RN 10.368 
*END

*D_NET *58 0.000736564
*CONN
*I *3443:RN I *D gf180mcu_fd_sc_mcu7t5v0__dffnrnq_1
*I *3412:ZN O *D gf180mcu_fd_sc_mcu7t5v0__clkinv_1
*CAP
1 *3443:RN 0.000154089
2 *3412:ZN 0.000154089
3 *3443:RN *3138:I 0
4 *3443:RN *3412:I 0.000376901
5 *3443:RN *3444:CLKN 5.14849e-05
*RES
1 *3412:ZN *3443:RN 10.52 
*END

*D_NET *59 0.000719793
*CONN
*I *3444:RN I *D gf180mcu_fd_sc_mcu7t5v0__dffnrnq_1
*I *3413:ZN O *D gf180mcu_fd_sc_mcu7t5v0__clkinv_1
*CAP
1 *3444:RN 0.00015245
2 *3413:ZN 0.00015245
3 *3444:RN *3264:B2 0.000386421
4 *3444:RN *329:42 2.84711e-05
*RES
1 *3413:ZN *3444:RN 10.52 
*END

*D_NET *60 0.000547764
*CONN
*I *3445:RN I *D gf180mcu_fd_sc_mcu7t5v0__dffnrnq_1
*I *3414:ZN O *D gf180mcu_fd_sc_mcu7t5v0__clkinv_1
*CAP
1 *3445:RN 6.00408e-05
2 *3414:ZN 6.00408e-05
3 *3445:RN *3141:I 1.15275e-05
4 *3445:RN *3414:I 0.000255714
5 *3445:RN *239:16 7.59351e-05
6 *3445:RN *946:22 8.45062e-05
*RES
1 *3414:ZN *3445:RN 9.988 
*END

*D_NET *61 0.000338336
*CONN
*I *3446:RN I *D gf180mcu_fd_sc_mcu7t5v0__dffnrnq_1
*I *3415:ZN O *D gf180mcu_fd_sc_mcu7t5v0__clkinv_1
*CAP
1 *3446:RN 0.000154759
2 *3415:ZN 0.000154759
3 *3446:RN *3142:I 2.88187e-05
4 *3446:RN *3447:CLKN 0
5 *3446:RN *239:16 0
*RES
1 *3415:ZN *3446:RN 9.988 
*END

*D_NET *62 0.000400611
*CONN
*I *3447:RN I *D gf180mcu_fd_sc_mcu7t5v0__dffnrnq_1
*I *3416:ZN O *D gf180mcu_fd_sc_mcu7t5v0__clkinv_1
*CAP
1 *3447:RN 0.000200305
2 *3416:ZN 0.000200305
3 *3447:RN *4072:I 0
*RES
1 *3416:ZN *3447:RN 10.216 
*END

*D_NET *63 0.000673451
*CONN
*I *3448:RN I *D gf180mcu_fd_sc_mcu7t5v0__dffnrnq_1
*I *3417:ZN O *D gf180mcu_fd_sc_mcu7t5v0__clkinv_1
*CAP
1 *3448:RN 0.000244546
2 *3417:ZN 0.000244546
3 *3448:RN *3416:I 8.0216e-05
4 *3448:RN *3579:I 2.88187e-05
5 *3448:RN *342:106 7.53241e-05
*RES
1 *3417:ZN *3448:RN 11.128 
*END

*D_NET *64 0.00154412
*CONN
*I *3477:D I *D gf180mcu_fd_sc_mcu7t5v0__dffrnq_1
*I *3279:ZN O *D gf180mcu_fd_sc_mcu7t5v0__aoi21_1
*CAP
1 *3477:D 0.000313233
2 *3279:ZN 0.000313233
3 *3477:D *3279:A2 9.52854e-05
4 *3477:D *3295:A2 5.62475e-05
5 *3477:D *3310:I1 9.6504e-05
6 *3477:D *255:14 0.000431781
7 *3477:D *343:268 0.000149465
8 *3477:D *343:272 8.83756e-05
9 *3477:D *343:346 0
*RES
1 *3279:ZN *3477:D 22.256 
*END

*D_NET *65 0.0019498
*CONN
*I *3478:D I *D gf180mcu_fd_sc_mcu7t5v0__dffrnq_1
*I *3285:ZN O *D gf180mcu_fd_sc_mcu7t5v0__oai21_1
*CAP
1 *3478:D 0.000322962
2 *3285:ZN 0.000322962
3 *3478:D *3285:A1 0.000134622
4 *3478:D *3285:A2 0.000134622
5 *3478:D *3298:A1 0.000647602
6 *3478:D *3478:RN 0.000138779
7 *3478:D *258:10 5.43763e-05
8 *3478:D *375:12 0.000193879
*RES
1 *3285:ZN *3478:D 21.42 
*END

*D_NET *66 0.000433531
*CONN
*I *3479:D I *D gf180mcu_fd_sc_mcu7t5v0__dffrnq_1
*I *3287:ZN O *D gf180mcu_fd_sc_mcu7t5v0__oai31_1
*CAP
1 *3479:D 0.000199131
2 *3287:ZN 0.000199131
3 *3479:D *3287:A3 1.52768e-05
4 *3479:D *3425:CLK 0
5 *3479:D *3479:CLK 1.5015e-05
6 *3479:D *258:8 4.97712e-06
*RES
1 *3287:ZN *3479:D 10.216 
*END

*D_NET *67 0.00183913
*CONN
*I *3480:D I *D gf180mcu_fd_sc_mcu7t5v0__dffrnq_1
*I *3290:ZN O *D gf180mcu_fd_sc_mcu7t5v0__nor3_1
*CAP
1 *3480:D 0.000309534
2 *3290:ZN 0.000309534
3 *3480:D *3126:I 0
4 *3480:D *3277:S0 0.000158886
5 *3480:D *253:14 0.000303906
6 *3480:D *322:105 0
7 *3480:D *343:251 0.00031512
8 *3480:D *343:260 2.23385e-05
9 *3480:D *413:10 1.27163e-05
10 *3513:D *3480:D 0.000407095
*RES
1 *3290:ZN *3480:D 22.256 
*END

*D_NET *68 0.00414519
*CONN
*I *3481:D I *D gf180mcu_fd_sc_mcu7t5v0__dffrnq_1
*I *3292:ZN O *D gf180mcu_fd_sc_mcu7t5v0__nor2_1
*CAP
1 *3481:D 0.000304589
2 *3292:ZN 0.000304589
3 *3481:D *3292:A2 0.000488164
4 *3481:D *343:251 0.000556564
5 *3481:D *374:31 0.00140357
6 *3481:D *379:44 0.000285068
7 *3481:D *774:23 0.000665973
8 *3481:D *875:16 0.000136674
*RES
1 *3292:ZN *3481:D 24.764 
*END

*D_NET *69 0.000401013
*CONN
*I *3482:D I *D gf180mcu_fd_sc_mcu7t5v0__dffrnq_1
*I *3300:ZN O *D gf180mcu_fd_sc_mcu7t5v0__clkinv_1
*CAP
1 *3482:D 0.000125717
2 *3300:ZN 0.000125717
3 *3482:D *3482:CLK 0.000149579
*RES
1 *3300:ZN *3482:D 10.064 
*END

*D_NET *70 0.00140673
*CONN
*I *3483:D I *D gf180mcu_fd_sc_mcu7t5v0__dffrnq_1
*I *3303:ZN O *D gf180mcu_fd_sc_mcu7t5v0__aoi22_1
*CAP
1 *3483:D 0.00021367
2 *3303:ZN 0.00021367
3 *3483:D *3297:A1 1.93526e-05
4 *3483:D *3303:A2 0.000111858
5 *3483:D *3304:A1 9.04162e-06
6 *3483:D *3484:CLK 4.90535e-05
7 *3483:D *269:12 4.08987e-05
8 *3483:D *271:8 0.000206333
9 *3483:D *375:31 0.000542853
*RES
1 *3303:ZN *3483:D 20.584 
*END

*D_NET *71 0.000674275
*CONN
*I *3484:D I *D gf180mcu_fd_sc_mcu7t5v0__dffrnq_1
*I *3306:ZN O *D gf180mcu_fd_sc_mcu7t5v0__oai21_1
*CAP
1 *3484:D 0.000143927
2 *3306:ZN 0.000143927
3 *3484:D *3306:A1 0.000386421
4 *3484:D *3484:CLK 0
*RES
1 *3306:ZN *3484:D 10.368 
*END

*D_NET *72 0.00328084
*CONN
*I *3485:D I *D gf180mcu_fd_sc_mcu7t5v0__dffrnq_1
*I *3309:ZN O *D gf180mcu_fd_sc_mcu7t5v0__aoi22_1
*CAP
1 *3485:D 0.000966286
2 *3309:ZN 0.000966286
3 *3485:D *3294:A4 0.00011021
4 *3485:D *3303:A1 8.02751e-06
5 *3485:D *3308:A2 9.85618e-05
6 *3485:D *3308:A3 8.95634e-05
7 *3485:D *3555:I 7.6687e-05
8 *3485:D *343:272 0
9 *3485:D *376:25 0.000169363
10 *3485:D *376:27 0.000299156
11 *3485:D *377:51 0.000376901
12 *3485:D *378:8 0.000119798
*RES
1 *3309:ZN *3485:D 25.6 
*END

*D_NET *73 0.000335406
*CONN
*I *3486:D I *D gf180mcu_fd_sc_mcu7t5v0__dffrnq_1
*I *3310:Z O *D gf180mcu_fd_sc_mcu7t5v0__mux2_2
*CAP
1 *3486:D 9.29134e-05
2 *3310:Z 9.29134e-05
3 *3486:D *3310:I1 0.000149579
*RES
1 *3310:Z *3486:D 9.836 
*END

*D_NET *74 0.000440778
*CONN
*I *3487:D I *D gf180mcu_fd_sc_mcu7t5v0__dffrnq_1
*I *3312:ZN O *D gf180mcu_fd_sc_mcu7t5v0__aoi21_1
*CAP
1 *3487:D 0.000164564
2 *3312:ZN 0.000164564
3 *3487:D *3311:A1 0
4 *3487:D *3312:A2 8.55242e-05
5 *3487:D *323:89 2.6126e-05
*RES
1 *3312:ZN *3487:D 9.988 
*END

*D_NET *75 0.000813354
*CONN
*I *3488:D I *D gf180mcu_fd_sc_mcu7t5v0__dffrnq_1
*I *3313:Z O *D gf180mcu_fd_sc_mcu7t5v0__mux2_2
*CAP
1 *3488:D 0.000401548
2 *3313:Z 0.000401548
3 *3488:D *3313:I1 1.02578e-05
4 *3488:D *3313:S 0
*RES
1 *3313:Z *3488:D 20.584 
*END

*D_NET *76 0.000664735
*CONN
*I *3489:D I *D gf180mcu_fd_sc_mcu7t5v0__dffrnq_1
*I *3315:ZN O *D gf180mcu_fd_sc_mcu7t5v0__aoi21_1
*CAP
1 *3489:D 9.92331e-05
2 *3315:ZN 9.92331e-05
3 *3489:D *3315:B 9.65141e-05
4 *3489:D *343:301 0.000369754
*RES
1 *3315:ZN *3489:D 10.216 
*END

*D_NET *77 0.000941165
*CONN
*I *3490:D I *D gf180mcu_fd_sc_mcu7t5v0__dffrnq_1
*I *3316:Z O *D gf180mcu_fd_sc_mcu7t5v0__mux2_2
*CAP
1 *3490:D 0.00030538
2 *3316:Z 0.00030538
3 *3490:D *343:397 0.00032464
4 *3490:D *343:431 5.76373e-06
*RES
1 *3316:Z *3490:D 11.432 
*END

*D_NET *78 0.000433411
*CONN
*I *3491:D I *D gf180mcu_fd_sc_mcu7t5v0__dffrnq_1
*I *3317:Z O *D gf180mcu_fd_sc_mcu7t5v0__mux2_2
*CAP
1 *3491:D 0.000178329
2 *3317:Z 0.000178329
3 *3491:D *3193:A2 0
4 *3491:D *3205:A2 0
5 *3491:D *3317:I1 7.60086e-05
6 *3491:D *323:102 7.45328e-07
7 *3491:D *390:150 0
*RES
1 *3317:Z *3491:D 10.064 
*END

*D_NET *79 0.00135415
*CONN
*I *3492:D I *D gf180mcu_fd_sc_mcu7t5v0__dffrnq_1
*I *3318:Z O *D gf180mcu_fd_sc_mcu7t5v0__mux2_2
*CAP
1 *3492:D 0.000318669
2 *3318:Z 0.000318669
3 *3492:D *3492:CLK 0.000716809
*RES
1 *3318:Z *3492:D 20.66 
*END

*D_NET *80 0.000806069
*CONN
*I *3493:D I *D gf180mcu_fd_sc_mcu7t5v0__dffrnq_1
*I *3319:Z O *D gf180mcu_fd_sc_mcu7t5v0__mux2_2
*CAP
1 *3493:D 0.000403034
2 *3319:Z 0.000403034
3 *3493:D *3319:I0 0
*RES
1 *3319:Z *3493:D 20.584 
*END

*D_NET *81 0.000423344
*CONN
*I *3494:D I *D gf180mcu_fd_sc_mcu7t5v0__dffrnq_1
*I *3320:Z O *D gf180mcu_fd_sc_mcu7t5v0__mux2_2
*CAP
1 *3494:D 0.000188098
2 *3320:Z 0.000188098
3 *3494:D *3178:A2 4.71484e-05
4 *3494:D *174:12 0
*RES
1 *3320:Z *3494:D 10.216 
*END

*D_NET *82 0.000784093
*CONN
*I *3495:D I *D gf180mcu_fd_sc_mcu7t5v0__dffrnq_1
*I *3322:ZN O *D gf180mcu_fd_sc_mcu7t5v0__oai21_1
*CAP
1 *3495:D 0.000228351
2 *3322:ZN 0.000228351
3 *3495:D *390:96 0.00030884
4 *3495:D *390:104 1.85511e-05
*RES
1 *3322:ZN *3495:D 19.672 
*END

*D_NET *83 0.000829981
*CONN
*I *3496:D I *D gf180mcu_fd_sc_mcu7t5v0__dffrnq_1
*I *3323:Z O *D gf180mcu_fd_sc_mcu7t5v0__mux2_2
*CAP
1 *3496:D 0.000388343
2 *3323:Z 0.000388343
3 *3496:D *3323:I1 5.07244e-05
4 *3496:D *3496:CLK 2.57058e-06
*RES
1 *3323:Z *3496:D 11.432 
*END

*D_NET *84 0.000756519
*CONN
*I *3497:D I *D gf180mcu_fd_sc_mcu7t5v0__dffrnq_1
*I *3324:Z O *D gf180mcu_fd_sc_mcu7t5v0__mux2_2
*CAP
1 *3497:D 0.000366595
2 *3324:Z 0.000366595
3 *3497:D *3497:CLK 2.333e-05
*RES
1 *3324:Z *3497:D 20.432 
*END

*D_NET *85 0.000359795
*CONN
*I *3498:D I *D gf180mcu_fd_sc_mcu7t5v0__dffrnq_1
*I *3325:Z O *D gf180mcu_fd_sc_mcu7t5v0__mux2_2
*CAP
1 *3498:D 0.000111057
2 *3325:Z 0.000111057
3 *3498:D *3325:I1 4.63109e-05
4 *3498:D *3498:CLK 7.31626e-05
5 *3498:D *374:90 1.82069e-05
*RES
1 *3325:Z *3498:D 9.836 
*END

*D_NET *86 0.00209448
*CONN
*I *3499:D I *D gf180mcu_fd_sc_mcu7t5v0__dffrnq_1
*I *3327:ZN O *D gf180mcu_fd_sc_mcu7t5v0__oai21_1
*CAP
1 *3499:D 0.000344779
2 *3327:ZN 0.000344779
3 *3499:D *323:10 0.000663513
4 *3499:D *343:431 0.000538438
5 *3499:D *390:55 0
6 *3499:D *390:72 0.000202974
*RES
1 *3327:ZN *3499:D 12.724 
*END

*D_NET *87 0.000791337
*CONN
*I *3500:D I *D gf180mcu_fd_sc_mcu7t5v0__dffrnq_1
*I *3329:ZN O *D gf180mcu_fd_sc_mcu7t5v0__oai21_1
*CAP
1 *3500:D 1.63857e-05
2 *3329:ZN 1.63857e-05
3 *3500:D *3329:A1 0.000379283
4 *3500:D *3329:A2 0.000379283
*RES
1 *3329:ZN *3500:D 9.988 
*END

*D_NET *88 0.000391233
*CONN
*I *3501:D I *D gf180mcu_fd_sc_mcu7t5v0__dffrnq_1
*I *3330:Z O *D gf180mcu_fd_sc_mcu7t5v0__mux2_2
*CAP
1 *3501:D 0.000151945
2 *3330:Z 0.000151945
3 *3501:D *3196:A1 8.73421e-05
*RES
1 *3330:Z *3501:D 10.064 
*END

*D_NET *89 0.000401013
*CONN
*I *3507:D I *D gf180mcu_fd_sc_mcu7t5v0__dffrnq_1
*I *3331:Z O *D gf180mcu_fd_sc_mcu7t5v0__or2_1
*CAP
1 *3507:D 0.000125717
2 *3331:Z 0.000125717
3 *3507:D *3169:A1 0.000149579
*RES
1 *3331:Z *3507:D 10.064 
*END

*D_NET *90 0.00229341
*CONN
*I *3331:A2 I *D gf180mcu_fd_sc_mcu7t5v0__or2_1
*I *3508:D I *D gf180mcu_fd_sc_mcu7t5v0__dffrnq_1
*I *3169:A2 I *D gf180mcu_fd_sc_mcu7t5v0__and2_1
*I *3168:ZN O *D gf180mcu_fd_sc_mcu7t5v0__oai21_1
*CAP
1 *3331:A2 0.000205256
2 *3508:D 0.000293285
3 *3169:A2 0
4 *3168:ZN 7.71068e-05
5 *90:12 0.000316939
6 *90:10 0.000306017
7 *3331:A2 *3169:A1 0.00024151
8 *3331:A2 *939:10 0
9 *3508:D *3508:CLK 0.000179609
10 *3508:D *328:97 0.000207557
11 *90:10 *3167:C 0.000387757
12 *90:12 *3169:A1 7.83779e-05
*RES
1 *3168:ZN *90:10 14.488 
2 *90:10 *90:12 0.228 
3 *90:12 *3169:A2 4.5 
4 *90:12 *3508:D 7.084 
5 *90:10 *3331:A2 15.096 
*END

*D_NET *91 0.000488086
*CONN
*I *3509:D I *D gf180mcu_fd_sc_mcu7t5v0__dffrnq_1
*I *3332:Z O *D gf180mcu_fd_sc_mcu7t5v0__mux2_2
*CAP
1 *3509:D 0.000244043
2 *3332:Z 0.000244043
*RES
1 *3332:Z *3509:D 10.52 
*END

*D_NET *92 0.00120312
*CONN
*I *3510:D I *D gf180mcu_fd_sc_mcu7t5v0__dffrnq_1
*I *3334:ZN O *D gf180mcu_fd_sc_mcu7t5v0__aoi21_1
*CAP
1 *3510:D 0.000302008
2 *3334:ZN 0.000302008
3 *3510:D *3332:S 0
4 *3510:D *3334:A1 5.87561e-06
5 *3510:D *329:27 0.000431412
6 *3510:D *930:25 0.000161819
*RES
1 *3334:ZN *3510:D 11.888 
*END

*D_NET *93 0.000587784
*CONN
*I *3449:D I *D gf180mcu_fd_sc_mcu7t5v0__dffrnq_1
*I *3337:ZN O *D gf180mcu_fd_sc_mcu7t5v0__aoi21_1
*CAP
1 *3449:D 4.25039e-05
2 *3337:ZN 4.25039e-05
3 *3449:D *3337:A1 0.000386421
4 *3449:D *3534:I 0.000116355
*RES
1 *3337:ZN *3449:D 9.988 
*END

*D_NET *94 0.000950515
*CONN
*I *3450:D I *D gf180mcu_fd_sc_mcu7t5v0__dffrnq_1
*I *3338:Z O *D gf180mcu_fd_sc_mcu7t5v0__mux2_2
*CAP
1 *3450:D 0.000402064
2 *3338:Z 0.000402064
3 *3450:D *3534:I 0.000128363
4 *3450:D *427:23 1.80248e-05
5 *3450:D *932:25 0
*RES
1 *3338:Z *3450:D 11.584 
*END

*D_NET *95 0.00185616
*CONN
*I *3451:D I *D gf180mcu_fd_sc_mcu7t5v0__dffrnq_1
*I *3340:ZN O *D gf180mcu_fd_sc_mcu7t5v0__aoi21_1
*CAP
1 *3451:D 0.000267934
2 *3340:ZN 0.000267934
3 *3451:D *3260:A1 0.000770391
4 *3451:D *3262:A1 8.0332e-05
5 *3451:D *329:168 0.000469567
*RES
1 *3340:ZN *3451:D 21.192 
*END

*D_NET *96 0.000437881
*CONN
*I *3452:D I *D gf180mcu_fd_sc_mcu7t5v0__dffrnq_1
*I *3342:ZN O *D gf180mcu_fd_sc_mcu7t5v0__aoi21_1
*CAP
1 *3452:D 9.56191e-05
2 *3342:ZN 9.56191e-05
3 *3452:D *3342:A1 0.000193942
4 *3452:D *3452:CLK 5.27013e-05
*RES
1 *3342:ZN *3452:D 9.836 
*END

*D_NET *97 0.000607669
*CONN
*I *3453:D I *D gf180mcu_fd_sc_mcu7t5v0__dffsnq_1
*I *3343:Z O *D gf180mcu_fd_sc_mcu7t5v0__mux2_2
*CAP
1 *3453:D 0.0002305
2 *3343:Z 0.0002305
3 *3453:D *3419:RN 2.40867e-05
4 *3453:D *3522:I 0
5 *3453:D *325:89 6.63508e-06
6 *3453:D *343:176 0.000115946
*RES
1 *3343:Z *3453:D 19.672 
*END

*D_NET *98 0.0009171
*CONN
*I *3454:D I *D gf180mcu_fd_sc_mcu7t5v0__dffsnq_1
*I *3344:Z O *D gf180mcu_fd_sc_mcu7t5v0__and2_1
*CAP
1 *3454:D 4.2557e-05
2 *3344:Z 4.2557e-05
3 *3454:D *3344:A2 0.000265092
4 *3454:D *374:25 0.000566893
*RES
1 *3344:Z *3454:D 19.444 
*END

*D_NET *99 0.0011655
*CONN
*I *3455:D I *D gf180mcu_fd_sc_mcu7t5v0__dffrnq_1
*I *3345:Z O *D gf180mcu_fd_sc_mcu7t5v0__mux2_2
*CAP
1 *3455:D 0.00026174
2 *3345:Z 0.00026174
3 *3455:D *3349:I1 3.4631e-05
4 *3455:D *3349:S 0.000396904
5 *3455:D *325:21 2.57058e-06
6 *3455:D *325:23 2.333e-05
7 *3455:D *343:72 0
8 *3455:D *936:10 4.2691e-05
9 *3455:D *936:25 0.000141897
*RES
1 *3345:Z *3455:D 20.584 
*END

*D_NET *100 0.00156286
*CONN
*I *3456:D I *D gf180mcu_fd_sc_mcu7t5v0__dffrnq_1
*I *3346:Z O *D gf180mcu_fd_sc_mcu7t5v0__mux2_2
*CAP
1 *3456:D 0.000184302
2 *3346:Z 0.000184302
3 *3456:D *3345:I0 0.000725285
4 *3456:D *3346:S 7.25737e-05
5 *3456:D *3349:I0 2.56676e-05
6 *3456:D *3459:RN 0.000370735
*RES
1 *3346:Z *3456:D 20.736 
*END

*D_NET *101 0.000442915
*CONN
*I *3457:D I *D gf180mcu_fd_sc_mcu7t5v0__dffrnq_1
*I *3347:Z O *D gf180mcu_fd_sc_mcu7t5v0__mux2_2
*CAP
1 *3457:D 0.000177786
2 *3347:Z 0.000177786
3 *3457:D *933:21 8.73421e-05
*RES
1 *3347:Z *3457:D 10.216 
*END

*D_NET *102 0.00041777
*CONN
*I *3458:D I *D gf180mcu_fd_sc_mcu7t5v0__dffrnq_1
*I *3348:Z O *D gf180mcu_fd_sc_mcu7t5v0__mux2_2
*CAP
1 *3458:D 0.000168588
2 *3348:Z 0.000168588
3 *3458:D *3348:I0 0
4 *3458:D *934:12 3.42838e-05
5 *3458:D *934:29 4.63109e-05
*RES
1 *3348:Z *3458:D 10.064 
*END

*D_NET *103 0.00119141
*CONN
*I *3459:D I *D gf180mcu_fd_sc_mcu7t5v0__dffrnq_1
*I *3349:Z O *D gf180mcu_fd_sc_mcu7t5v0__mux2_2
*CAP
1 *3459:D 0.000463313
2 *3349:Z 0.000463313
3 *3459:D *3456:CLK 2.77603e-05
4 *3459:D *3459:CLK 7.02034e-05
5 *3459:D *3524:I 0
6 *3459:D *3832:I 0.000125443
7 *3459:D *325:23 4.13778e-05
*RES
1 *3349:Z *3459:D 21.42 
*END

*D_NET *104 0.000295203
*CONN
*I *3460:D I *D gf180mcu_fd_sc_mcu7t5v0__dffsnq_1
*I *3351:Z O *D gf180mcu_fd_sc_mcu7t5v0__mux2_2
*CAP
1 *3460:D 0.000129522
2 *3351:Z 0.000129522
3 *3460:D *3336:A1 0
4 *3460:D *3351:I1 1.02578e-05
5 *3460:D *3460:SETN 2.57058e-06
6 *3460:D *3460:CLK 2.333e-05
*RES
1 *3351:Z *3460:D 9.836 
*END

*D_NET *105 0.000841704
*CONN
*I *3461:D I *D gf180mcu_fd_sc_mcu7t5v0__dffsnq_1
*I *3352:Z O *D gf180mcu_fd_sc_mcu7t5v0__mux2_2
*CAP
1 *3461:D 0.000334565
2 *3352:Z 0.000334565
3 *3461:D *3352:I1 8.7332e-05
4 *3461:D *325:10 3.81004e-05
5 *3461:D *936:25 4.71416e-05
*RES
1 *3352:Z *3461:D 20.432 
*END

*D_NET *106 0.000969926
*CONN
*I *3462:D I *D gf180mcu_fd_sc_mcu7t5v0__dffsnq_1
*I *3353:Z O *D gf180mcu_fd_sc_mcu7t5v0__mux2_2
*CAP
1 *3462:D 0.000383657
2 *3353:Z 0.000383657
3 *3462:D *3260:A1 0
4 *3462:D *3261:B2 0
5 *3462:D *3353:S 0.000202612
*RES
1 *3353:Z *3462:D 11.736 
*END

*D_NET *107 0.000608732
*CONN
*I *3463:D I *D gf180mcu_fd_sc_mcu7t5v0__dffrnq_1
*I *3354:Z O *D gf180mcu_fd_sc_mcu7t5v0__mux2_2
*CAP
1 *3463:D 9.41262e-05
2 *3354:Z 9.41262e-05
3 *3463:D *3272:I0 4.10312e-05
4 *3463:D *3354:I1 5.48085e-05
5 *3463:D *326:38 0.00032464
*RES
1 *3354:Z *3463:D 10.216 
*END

*D_NET *108 0.000853476
*CONN
*I *3464:D I *D gf180mcu_fd_sc_mcu7t5v0__dffrnq_1
*I *3355:Z O *D gf180mcu_fd_sc_mcu7t5v0__mux2_2
*CAP
1 *3464:D 0.000182407
2 *3355:Z 0.000182407
3 *3464:D *3343:I0 8.8425e-05
4 *3464:D *3355:I0 0.000279004
5 *3464:D *343:174 4.74709e-05
6 *3464:D *379:10 7.37619e-05
7 *3464:D *625:14 0
*RES
1 *3355:Z *3464:D 19.672 
*END

*D_NET *109 0.00117536
*CONN
*I *3465:D I *D gf180mcu_fd_sc_mcu7t5v0__dffrnq_1
*I *3356:Z O *D gf180mcu_fd_sc_mcu7t5v0__mux2_2
*CAP
1 *3465:D 0.000352416
2 *3356:Z 0.000352416
3 *3465:D *3273:I1 7.57767e-05
4 *3465:D *385:8 0.000369763
5 *3529:I *3465:D 2.49879e-05
*RES
1 *3356:Z *3465:D 11.812 
*END

*D_NET *110 0.000842533
*CONN
*I *3466:D I *D gf180mcu_fd_sc_mcu7t5v0__dffrnq_1
*I *3357:Z O *D gf180mcu_fd_sc_mcu7t5v0__mux2_2
*CAP
1 *3466:D 0.000246228
2 *3357:Z 0.000246228
3 *3466:D *3277:S0 7.88344e-05
4 *3466:D *320:25 8.15726e-05
5 *3466:D *320:31 1.12495e-05
6 *3466:D *387:22 7.88344e-05
7 *3466:D *391:10 9.95869e-05
*RES
1 *3357:Z *3466:D 20.28 
*END

*D_NET *111 0.000678792
*CONN
*I *3467:D I *D gf180mcu_fd_sc_mcu7t5v0__dffrnq_1
*I *3359:ZN O *D gf180mcu_fd_sc_mcu7t5v0__oai21_1
*CAP
1 *3467:D 0.000204593
2 *3359:ZN 0.000204593
3 *3467:D *3359:A1 0.000148773
4 *3467:D *320:17 5.97012e-05
5 *3467:D *327:94 0
6 *3467:D *329:201 3.50062e-05
7 *3467:D *338:25 2.6126e-05
*RES
1 *3359:ZN *3467:D 10.444 
*END

*D_NET *112 0.00236127
*CONN
*I *3468:D I *D gf180mcu_fd_sc_mcu7t5v0__dffrnq_1
*I *3361:ZN O *D gf180mcu_fd_sc_mcu7t5v0__oai21_1
*CAP
1 *3468:D 0.000349375
2 *3361:ZN 0.000349375
3 *3468:D *3359:B 0.000103272
4 *3468:D *3361:A2 8.84331e-05
5 *3468:D *327:94 9.88736e-06
6 *3468:D *327:111 5.67762e-05
7 *3468:D *338:47 0.00140415
*RES
1 *3361:ZN *3468:D 22.408 
*END

*D_NET *113 0.000789709
*CONN
*I *3469:D I *D gf180mcu_fd_sc_mcu7t5v0__dffrnq_1
*I *3363:ZN O *D gf180mcu_fd_sc_mcu7t5v0__aoi21_1
*CAP
1 *3469:D 0.000353009
2 *3363:ZN 0.000353009
3 *3469:D *3560:I 0
4 *3469:D *328:36 3.18897e-05
5 *3469:D *338:79 5.18011e-05
*RES
1 *3363:ZN *3469:D 11.28 
*END

*D_NET *114 0.000793834
*CONN
*I *3470:D I *D gf180mcu_fd_sc_mcu7t5v0__dffrnq_1
*I *3365:ZN O *D gf180mcu_fd_sc_mcu7t5v0__aoi21_1
*CAP
1 *3470:D 0.000156198
2 *3365:ZN 0.000156198
3 *3470:D *3365:B 0.000221585
4 *3470:D *328:36 9.67997e-05
5 *3470:D *338:70 0.000163052
*RES
1 *3365:ZN *3470:D 10.596 
*END

*D_NET *115 0.000928376
*CONN
*I *3471:D I *D gf180mcu_fd_sc_mcu7t5v0__dffrnq_1
*I *3378:Z O *D gf180mcu_fd_sc_mcu7t5v0__xor2_1
*CAP
1 *3471:D 0.000220086
2 *3378:Z 0.000220086
3 *3471:D *3277:S0 2.9378e-06
4 *3471:D *3378:A1 5.83634e-05
5 *3471:D *3466:CLK 4.58601e-06
6 *3471:D *3471:CLK 1.15275e-05
7 *3471:D *3472:CLK 0.000269865
8 *3471:D *3533:I 0.000140924
9 *3471:D *343:564 0
*RES
1 *3378:Z *3471:D 19.976 
*END

*D_NET *116 0.000819527
*CONN
*I *3472:D I *D gf180mcu_fd_sc_mcu7t5v0__dffrnq_1
*I *3381:Z O *D gf180mcu_fd_sc_mcu7t5v0__xor2_1
*CAP
1 *3472:D 0.00017467
2 *3381:Z 0.00017467
3 *3472:D *386:12 2.35105e-05
4 *3472:D *386:49 0.000379283
5 *3472:D *387:10 0
6 *3529:I *3472:D 6.73926e-05
*RES
1 *3381:Z *3472:D 19.672 
*END

*D_NET *117 0.00042657
*CONN
*I *3473:D I *D gf180mcu_fd_sc_mcu7t5v0__dffrnq_1
*I *3384:ZN O *D gf180mcu_fd_sc_mcu7t5v0__clkinv_1
*CAP
1 *3473:D 0.000162535
2 *3384:ZN 0.000162535
3 *3473:D *3384:I 0.000101499
*RES
1 *3384:ZN *3473:D 10.216 
*END

*D_NET *118 0.000539476
*CONN
*I *3474:D I *D gf180mcu_fd_sc_mcu7t5v0__dffrnq_1
*I *3389:ZN O *D gf180mcu_fd_sc_mcu7t5v0__oai31_1
*CAP
1 *3474:D 0.000196115
2 *3389:ZN 0.000196115
3 *3474:D *3389:A2 3.08902e-05
4 *3474:D *3389:A3 0
5 *3474:D *3474:CLK 0.000116355
*RES
1 *3389:ZN *3474:D 10.596 
*END

*D_NET *119 0.00188527
*CONN
*I *3475:D I *D gf180mcu_fd_sc_mcu7t5v0__dffrnq_1
*I *3394:ZN O *D gf180mcu_fd_sc_mcu7t5v0__aoi22_1
*CAP
1 *3475:D 0.000630268
2 *3394:ZN 0.000630268
3 *3475:D *3394:A1 0.000162918
4 *3475:D *371:10 0
5 *3475:D *372:25 0.000461813
*RES
1 *3394:ZN *3475:D 23.244 
*END

*D_NET *120 0.000655284
*CONN
*I *3476:D I *D gf180mcu_fd_sc_mcu7t5v0__dffrnq_1
*I *3399:ZN O *D gf180mcu_fd_sc_mcu7t5v0__oai22_1
*CAP
1 *3476:D 0.000159646
2 *3399:ZN 0.000159646
3 *3476:D *3399:A2 0.000298454
4 *3476:D *3399:B2 3.75371e-05
*RES
1 *3399:ZN *3476:D 10.368 
*END

*D_NET *121 0.00157916
*CONN
*I *3158:A1 I *D gf180mcu_fd_sc_mcu7t5v0__and3_1
*I *3111:ZN O *D gf180mcu_fd_sc_mcu7t5v0__clkinv_1
*CAP
1 *3158:A1 0.000304202
2 *3111:ZN 0.000304202
3 *3158:A1 *3157:A2 0.000128288
4 *3158:A1 *3157:B 0.000317494
5 *3158:A1 *3158:A2 0
6 *3158:A1 *3158:A3 8.38119e-05
7 *3158:A1 *3167:A1 0
8 *3158:A1 *3167:A2 0.000337887
9 *3158:A1 *3167:C 0
10 *3158:A1 *144:33 0.000103272
11 *3158:A1 *161:14 0
*RES
1 *3111:ZN *3158:A1 21.116 
*END

*D_NET *122 0.00170688
*CONN
*I *3166:A1 I *D gf180mcu_fd_sc_mcu7t5v0__aoi21_1
*I *3112:ZN O *D gf180mcu_fd_sc_mcu7t5v0__clkinv_1
*CAP
1 *3166:A1 0.000238146
2 *3112:ZN 0.000238146
3 *3166:A1 *3157:A1 0.000326528
4 *3166:A1 *3157:A2 5.90103e-05
5 *3166:A1 *3166:A2 8.94249e-05
6 *3166:A1 *3166:B 3.08902e-05
7 *3166:A1 *150:8 6.85937e-05
8 *3166:A1 *329:294 5.14116e-06
9 *3166:A1 *382:14 0.000650998
*RES
1 *3112:ZN *3166:A1 20.888 
*END

*D_NET *123 0.00439293
*CONN
*I *3166:A2 I *D gf180mcu_fd_sc_mcu7t5v0__aoi21_1
*I *3161:B I *D gf180mcu_fd_sc_mcu7t5v0__aoi21_1
*I *3113:ZN O *D gf180mcu_fd_sc_mcu7t5v0__clkinv_1
*CAP
1 *3166:A2 0.00106767
2 *3161:B 0.000273132
3 *3113:ZN 1.1996e-05
4 *123:8 0.00135279
5 *3161:B *3113:I 1.15275e-05
6 *3161:B *3152:A2 0.000248051
7 *3161:B *3162:B 0
8 *3161:B *417:27 0
9 *3166:A2 *3147:A1 7.33042e-05
10 *3166:A2 *3157:A1 0.000129714
11 *3166:A2 *3162:B 0
12 *3166:A2 *3166:B 0.000600832
13 *3166:A2 *3167:B1 0.000196402
14 *3166:A2 *3546:I 9.86399e-05
15 *3166:A2 *144:33 5.76749e-06
16 *3166:A2 *161:14 0.000153254
17 *3166:A2 *329:294 0
18 *123:8 *3113:I 8.04285e-05
19 *3166:A1 *3166:A2 8.94249e-05
*RES
1 *3113:ZN *123:8 9.228 
2 *123:8 *3161:B 11.128 
3 *123:8 *3166:A2 17.056 
*END

*D_NET *124 0.00495636
*CONN
*I *3152:A1 I *D gf180mcu_fd_sc_mcu7t5v0__oai21_1
*I *3359:A1 I *D gf180mcu_fd_sc_mcu7t5v0__oai21_1
*I *3114:ZN O *D gf180mcu_fd_sc_mcu7t5v0__clkinv_1
*CAP
1 *3152:A1 0.000261087
2 *3359:A1 0.000332222
3 *3114:ZN 0.000345963
4 *124:10 0.000939272
5 *3152:A1 *3149:A1 0.000204674
6 *3152:A1 *3152:A2 1.52768e-05
7 *3152:A1 *3152:B 8.55327e-05
8 *3152:A1 *3160:A2 2.58816e-05
9 *3152:A1 *3160:B 1.11891e-05
10 *3152:A1 *3161:A2 0.000846633
11 *3152:A1 *3468:RN 7.93657e-06
12 *3359:A1 *3160:B 3.50686e-05
13 *3359:A1 *3161:A2 0.000261992
14 *3359:A1 *3359:B 7.24161e-06
15 *3359:A1 *3468:CLK 0
16 *3359:A1 *320:69 0.000746324
17 *3359:A1 *327:94 2.71665e-05
18 *3359:A1 *327:111 0
19 *3359:A1 *338:25 2.74753e-05
20 *3359:A1 *338:36 1.5015e-05
21 *124:10 *3114:I 5.55846e-05
22 *124:10 *3160:A2 0.000300627
23 *124:10 *3468:RN 8.47086e-06
24 *124:10 *3534:I 0.00024695
25 *3467:D *3359:A1 0.000148773
*RES
1 *3114:ZN *124:10 7.616 
2 *124:10 *3359:A1 17.756 
3 *124:10 *3152:A1 16.54 
*END

*D_NET *125 0.00444903
*CONN
*I *3160:A2 I *D gf180mcu_fd_sc_mcu7t5v0__oai21_1
*I *3337:A1 I *D gf180mcu_fd_sc_mcu7t5v0__aoi21_1
*I *3115:ZN O *D gf180mcu_fd_sc_mcu7t5v0__clkinv_1
*CAP
1 *3160:A2 0.00039741
2 *3337:A1 0.000219862
3 *3115:ZN 0.00016022
4 *125:10 0.000777492
5 *3160:A2 *3114:I 1.5015e-05
6 *3160:A2 *3160:A1 0.00013794
7 *3160:A2 *3161:A2 8.55327e-05
8 *3160:A2 *3468:RN 0
9 *3160:A2 *3534:I 0.000128373
10 *3160:A2 *327:10 1.34535e-05
11 *3160:A2 *329:191 0.000559034
12 *3337:A1 *3272:I1 0.000297165
13 *3337:A1 *3518:D 0.000298454
14 *3337:A1 *3534:I 0.000197949
15 *3337:A1 *329:191 0.000448201
16 *125:10 *329:174 0
17 *3152:A1 *3160:A2 2.58816e-05
18 *3449:D *3337:A1 0.000386421
19 *124:10 *3160:A2 0.000300627
*RES
1 *3115:ZN *125:10 14.488 
2 *125:10 *3337:A1 8.3 
3 *125:10 *3160:A2 9.44 
*END

*D_NET *126 0.00945114
*CONN
*I *3396:A1 I *D gf180mcu_fd_sc_mcu7t5v0__nand4_1
*I *3387:A1 I *D gf180mcu_fd_sc_mcu7t5v0__aoi21_1
*I *3386:A1 I *D gf180mcu_fd_sc_mcu7t5v0__and2_1
*I *3395:A1 I *D gf180mcu_fd_sc_mcu7t5v0__nor4_1
*I *3379:A1 I *D gf180mcu_fd_sc_mcu7t5v0__nand2_1
*I *3121:ZN O *D gf180mcu_fd_sc_mcu7t5v0__clkinv_1
*CAP
1 *3396:A1 4.6939e-05
2 *3387:A1 0.000193182
3 *3386:A1 3.06444e-05
4 *3395:A1 0
5 *3379:A1 0.000127244
6 *3121:ZN 0.000428461
7 *126:50 0.000395128
8 *126:43 0.000515836
9 *126:35 0.00051815
10 *126:22 0.000682383
11 *3379:A1 *3379:A2 8.55242e-05
12 *3379:A1 *3381:A2 9.65874e-05
13 *3379:A1 *293:16 0.000141194
14 *3379:A1 *301:8 2.5879e-05
15 *3379:A1 *386:49 0.000209085
16 *3386:A1 *3386:A2 0
17 *3386:A1 *3474:CLK 3.00299e-05
18 *3387:A1 *3386:A2 0.000531352
19 *3387:A1 *3387:B 0.000126278
20 *3387:A1 *3389:A1 2.6126e-05
21 *3387:A1 *3389:A2 0.000366087
22 *3387:A1 *3474:CLK 7.24161e-06
23 *3387:A1 *309:10 0.000135135
24 *3396:A1 *3375:A2 0
25 *3396:A1 *365:10 2.23598e-06
26 *3396:A1 *370:59 0.000137785
27 *126:22 *3369:A1 3.87828e-05
28 *126:22 *3369:B2 0.000149579
29 *126:22 *3376:A1 8.51219e-05
30 *126:22 *3377:A1 0.000441055
31 *126:22 *3377:A2 5.43087e-05
32 *126:22 *3377:B2 0
33 *126:22 *3377:C 0.000490028
34 *126:22 *3378:A2 0
35 *126:22 *3380:A1 5.40635e-05
36 *126:22 *3380:C 8.55327e-05
37 *126:22 *293:16 6.17803e-05
38 *126:22 *293:23 0.000367381
39 *126:22 *295:12 9.61205e-06
40 *126:22 *301:8 2.03665e-05
41 *126:22 *389:30 0
42 *126:35 *3375:A2 0.000177092
43 *126:35 *3380:B2 0.000158886
44 *126:35 *3577:I 7.87465e-05
45 *126:35 *293:16 0.000353874
46 *126:35 *302:10 8.9996e-05
47 *126:35 *365:10 0.000406043
48 *126:35 *366:12 0.000150074
49 *126:43 *3360:A1 0.00022713
50 *126:43 *3399:B2 0.000134636
51 *126:43 *3474:CLK 5.48978e-05
52 *126:43 *365:10 0.000264158
53 *126:50 *3395:A3 0.000139985
54 *126:50 *3399:B2 8.55242e-05
55 *126:50 *3474:CLK 0.000368747
56 *3:18 *126:22 4.52293e-05
*RES
1 *3121:ZN *126:22 18.592 
2 *126:22 *3379:A1 6.02 
3 *126:22 *126:35 8.224 
4 *126:35 *126:43 7.92 
5 *126:43 *3395:A1 4.5 
6 *126:43 *126:50 2.204 
7 *126:50 *3386:A1 4.956 
8 *126:50 *3387:A1 7.692 
9 *126:35 *3396:A1 9.38 
*END

*D_NET *127 0.00321592
*CONN
*I *3204:A1 I *D gf180mcu_fd_sc_mcu7t5v0__oai21_1
*I *3322:A1 I *D gf180mcu_fd_sc_mcu7t5v0__oai21_1
*I *3183:A3 I *D gf180mcu_fd_sc_mcu7t5v0__xor3_1
*I *3122:ZN O *D gf180mcu_fd_sc_mcu7t5v0__clkinv_1
*CAP
1 *3204:A1 0.000120236
2 *3322:A1 0.000543993
3 *3183:A3 0.000179925
4 *3122:ZN 0.000446629
5 *127:22 0.000930933
6 *3183:A3 *3326:A1 1.81888e-05
7 *3183:A3 *3554:I 0.000375304
8 *3183:A3 *178:53 0.000134564
9 *3183:A3 *390:96 0
10 *3204:A1 *199:10 5.76373e-06
11 *3204:A1 *343:470 0.000201957
12 *3322:A1 *3181:A1 2.13476e-05
13 *3322:A1 *3500:RN 0
14 *3322:A1 *390:104 0.000143192
15 *3322:A1 *400:17 6.00037e-05
16 *3322:A1 *400:33 1.97263e-05
17 *127:22 *3500:RN 0
18 *127:22 *210:6 0
19 *127:22 *343:470 1.41533e-05
*RES
1 *3122:ZN *3183:A3 10.748 
2 *3122:ZN *127:22 10.52 
3 *127:22 *3322:A1 12.268 
4 *127:22 *3204:A1 10.14 
*END

*D_NET *128 0.0047037
*CONN
*I *3211:A1 I *D gf180mcu_fd_sc_mcu7t5v0__xor2_1
*I *3215:A1 I *D gf180mcu_fd_sc_mcu7t5v0__oai21_1
*I *3329:A1 I *D gf180mcu_fd_sc_mcu7t5v0__oai21_1
*I *3123:ZN O *D gf180mcu_fd_sc_mcu7t5v0__clkinv_1
*CAP
1 *3211:A1 0.000124832
2 *3215:A1 0
3 *3329:A1 0.000804883
4 *3123:ZN 8.58056e-05
5 *128:10 0.00100913
6 *128:8 0.000414887
7 *3329:A1 *3329:A2 3.00299e-05
8 *3329:A1 *3500:RN 8.0332e-05
9 *3329:A1 *3500:CLK 0.000142224
10 *3329:A1 *343:472 0.000196936
11 *128:8 *3123:I 0.000317494
12 *3500:D *3329:A1 0.000379283
13 *3:18 *3211:A1 0.000117625
14 *3:18 *3329:A1 0.000692208
15 *3:18 *128:10 0.000308027
*RES
1 *3123:ZN *128:8 9.836 
2 *128:8 *128:10 2.204 
3 *128:10 *3329:A1 17.512 
4 *128:10 *3215:A1 9 
5 *128:8 *3211:A1 9.988 
*END

*D_NET *129 0.00177434
*CONN
*I *3203:A1 I *D gf180mcu_fd_sc_mcu7t5v0__oai21_1
*I *3327:A1 I *D gf180mcu_fd_sc_mcu7t5v0__oai21_1
*I *3124:ZN O *D gf180mcu_fd_sc_mcu7t5v0__clkinv_1
*CAP
1 *3203:A1 0
2 *3327:A1 0.000400523
3 *3124:ZN 0.000297271
4 *129:8 0.000697794
5 *3327:A1 *178:10 6.24444e-05
6 *3327:A1 *211:8 0
7 *3327:A1 *390:55 0.000106621
8 *129:8 *3189:A3 0.000158886
9 *129:8 *178:10 2.67619e-05
10 *129:8 *178:25 2.40434e-05
11 *129:8 *195:14 0
*RES
1 *3124:ZN *129:8 11.204 
2 *129:8 *3327:A1 12.268 
3 *129:8 *3203:A1 9 
*END

*D_NET *130 0.00102109
*CONN
*I *3220:A1 I *D gf180mcu_fd_sc_mcu7t5v0__nor4_1
*I *3125:ZN O *D gf180mcu_fd_sc_mcu7t5v0__clkinv_1
*CAP
1 *3220:A1 0.000142278
2 *3125:ZN 0.000142278
3 *3220:A1 *3237:A1 0.000120462
4 *3220:A1 *3237:B 8.95196e-05
5 *3220:A1 *324:122 2.76198e-05
6 *3516:D *3220:A1 0.000498937
*RES
1 *3125:ZN *3220:A1 10.9 
*END

*D_NET *131 0.000511781
*CONN
*I *3229:C I *D gf180mcu_fd_sc_mcu7t5v0__aoi211_1
*I *3126:ZN O *D gf180mcu_fd_sc_mcu7t5v0__clkinv_1
*CAP
1 *3229:C 0.000205377
2 *3126:ZN 0.000205377
3 *3229:C *3126:I 4.82663e-05
4 *3229:C *3229:B 1.02578e-05
5 *3229:C *374:90 4.25026e-05
*RES
1 *3126:ZN *3229:C 10.52 
*END

*D_NET *132 0.00237808
*CONN
*I *3365:A1 I *D gf180mcu_fd_sc_mcu7t5v0__aoi21_1
*I *3399:A1 I *D gf180mcu_fd_sc_mcu7t5v0__oai22_1
*I *3127:ZN O *D gf180mcu_fd_sc_mcu7t5v0__clkinv_1
*CAP
1 *3365:A1 0.000121195
2 *3399:A1 0.000549803
3 *3127:ZN 7.1398e-05
4 *132:8 0.000742396
5 *3365:A1 *3364:A1 0
6 *3365:A1 *3560:I 7.52295e-05
7 *3365:A1 *328:36 3.43949e-05
8 *3365:A1 *338:66 0
9 *3365:A1 *338:70 1.02578e-05
10 *3365:A1 *338:79 2.22657e-05
11 *3399:A1 *3367:A3 0.000237928
12 *3399:A1 *3560:I 0.000104687
13 *3399:A1 *338:66 0
14 *3399:A1 *373:8 0.000221728
15 *132:8 *338:79 0.000186796
*RES
1 *3127:ZN *132:8 9.532 
2 *132:8 *3399:A1 13.636 
3 *132:8 *3365:A1 9.912 
*END

*D_NET *133 0.00207861
*CONN
*I *3363:A1 I *D gf180mcu_fd_sc_mcu7t5v0__aoi21_1
*I *3394:A1 I *D gf180mcu_fd_sc_mcu7t5v0__aoi22_1
*I *3128:ZN O *D gf180mcu_fd_sc_mcu7t5v0__clkinv_1
*CAP
1 *3363:A1 0.000307034
2 *3394:A1 0.000326836
3 *3128:ZN 0
4 *133:4 0.00063387
5 *3363:A1 *3363:B 7.71175e-06
6 *3363:A1 *329:324 0
7 *3363:A1 *338:79 0
8 *3394:A1 *3128:I 7.54503e-05
9 *3394:A1 *3391:A2 3.42922e-06
10 *3394:A1 *329:324 2.93893e-05
11 *3394:A1 *329:335 2.6126e-05
12 *3394:A1 *372:25 0.000505847
13 *3475:D *3394:A1 0.000162918
*RES
1 *3128:ZN *133:4 4.5 
2 *133:4 *3394:A1 16.236 
3 *133:4 *3363:A1 6.476 
*END

*D_NET *134 0.000645768
*CONN
*I *3276:A1 I *D gf180mcu_fd_sc_mcu7t5v0__oai21_1
*I *3129:ZN O *D gf180mcu_fd_sc_mcu7t5v0__clkinv_1
*CAP
1 *3276:A1 0.000202326
2 *3129:ZN 0.000202326
3 *3276:A1 *3276:A2 4.84492e-05
4 *3276:A1 *3552:I 7.30256e-05
5 *3276:A1 *379:44 0
6 *3276:A1 *774:23 8.18373e-05
7 *3276:A1 *875:16 3.78032e-05
*RES
1 *3129:ZN *3276:A1 19.672 
*END

*D_NET *135 0.000109345
*CONN
*I *3276:B I *D gf180mcu_fd_sc_mcu7t5v0__oai21_1
*I *3130:ZN O *D gf180mcu_fd_sc_mcu7t5v0__clkinv_1
*CAP
1 *3276:B 5.46724e-05
2 *3130:ZN 5.46724e-05
*RES
1 *3130:ZN *3276:B 9.38 
*END

*D_NET *136 0.00220667
*CONN
*I *3295:A1 I *D gf180mcu_fd_sc_mcu7t5v0__nand3_1
*I *3279:A1 I *D gf180mcu_fd_sc_mcu7t5v0__aoi21_1
*I *3131:ZN O *D gf180mcu_fd_sc_mcu7t5v0__clkinv_1
*CAP
1 *3295:A1 0
2 *3279:A1 0.000176791
3 *3131:ZN 0.000141838
4 *136:12 0.000318629
5 *3279:A1 *3295:A2 2.67745e-05
6 *3279:A1 *266:8 0.000586823
7 *3279:A1 *343:383 7.30126e-05
8 *3279:A1 *343:390 0.00032464
9 *136:12 *3131:I 0.00045128
10 *136:12 *343:390 0.000106886
*RES
1 *3131:ZN *136:12 15.02 
2 *136:12 *3279:A1 6.856 
3 *136:12 *3295:A1 4.5 
*END

*D_NET *137 0.00275134
*CONN
*I *3312:A1 I *D gf180mcu_fd_sc_mcu7t5v0__aoi21_1
*I *3303:A1 I *D gf180mcu_fd_sc_mcu7t5v0__aoi22_1
*I *3132:ZN O *D gf180mcu_fd_sc_mcu7t5v0__clkinv_1
*CAP
1 *3312:A1 0.000662232
2 *3303:A1 0.000496707
3 *3132:ZN 0
4 *137:4 0.00115894
5 *3303:A1 *3294:A4 0
6 *3303:A1 *3307:A2 0
7 *3303:A1 *3309:A2 1.62028e-05
8 *3303:A1 *375:31 1.93354e-05
9 *3303:A1 *375:66 0.000107777
10 *3303:A1 *376:25 0.00018277
11 *3303:A1 *376:27 9.935e-05
12 *3312:A1 *3310:S 0
13 *3312:A1 *3555:I 0
14 *3485:D *3303:A1 8.02751e-06
*RES
1 *3132:ZN *137:4 4.5 
2 *137:4 *3303:A1 8.148 
3 *137:4 *3312:A1 8.376 
*END

*D_NET *138 0.00345208
*CONN
*I *3315:A1 I *D gf180mcu_fd_sc_mcu7t5v0__aoi21_1
*I *3309:B2 I *D gf180mcu_fd_sc_mcu7t5v0__aoi22_1
*I *3133:ZN O *D gf180mcu_fd_sc_mcu7t5v0__clkinv_1
*CAP
1 *3315:A1 0.000395256
2 *3309:B2 0.000553415
3 *3133:ZN 0
4 *138:4 0.000948671
5 *3309:B2 *3308:A4 0.000128771
6 *3309:B2 *3309:B1 7.83779e-05
7 *3309:B2 *3484:RN 5.48455e-05
8 *3309:B2 *343:272 8.15665e-05
9 *3309:B2 *343:293 7.57844e-05
10 *3309:B2 *343:297 0.000108627
11 *3309:B2 *377:51 0.000460419
12 *3315:A1 *3313:I0 5.86759e-05
13 *3315:A1 *343:297 0.000340358
14 *3315:A1 *343:301 8.55819e-05
15 *3315:A1 *397:23 8.17271e-05
*RES
1 *3133:ZN *138:4 4.5 
2 *138:4 *3309:B2 18.288 
3 *138:4 *3315:A1 7.92 
*END

*D_NET *139 0.00406575
*CONN
*I *3239:A2 I *D gf180mcu_fd_sc_mcu7t5v0__nand2_1
*I *3240:A2 I *D gf180mcu_fd_sc_mcu7t5v0__nand3_1
*I *3134:ZN O *D gf180mcu_fd_sc_mcu7t5v0__clkinv_1
*CAP
1 *3239:A2 7.25748e-05
2 *3240:A2 0.00016682
3 *3134:ZN 0.000242818
4 *139:8 0.000482214
5 *3239:A2 *340:27 0.000791922
6 *3239:A2 *949:22 0.000894676
7 *3240:A2 *3333:A1 0.000185193
8 *3240:A2 *3436:D 0.000414253
9 *3240:A2 *3436:RN 1.20889e-05
10 *3240:A2 *3436:CLK 7.18942e-06
11 *3240:A2 *949:22 0.000525983
12 *139:8 *3134:I 9.08447e-05
13 *139:8 *3240:A3 0.000121345
14 *139:8 *3434:CLK 0
15 *139:8 *3436:RN 5.27305e-05
16 *3433:RN *3239:A2 5.09442e-06
*RES
1 *3134:ZN *139:8 11.204 
2 *139:8 *3240:A2 12.192 
3 *139:8 *3239:A2 11.356 
*END

*D_NET *140 0.0027353
*CONN
*I *3252:A1 I *D gf180mcu_fd_sc_mcu7t5v0__and2_1
*I *3251:A1 I *D gf180mcu_fd_sc_mcu7t5v0__nor2_1
*I *3334:A1 I *D gf180mcu_fd_sc_mcu7t5v0__aoi21_1
*I *3135:ZN O *D gf180mcu_fd_sc_mcu7t5v0__clkinv_1
*CAP
1 *3252:A1 0.000173089
2 *3251:A1 0
3 *3334:A1 0.000421491
4 *3135:ZN 8.44937e-05
5 *140:19 0.000269514
6 *140:10 0.000602409
7 *3252:A1 *3175:A2 0
8 *3252:A1 *3175:A3 0
9 *3252:A1 *3251:A2 3.00299e-05
10 *3252:A1 *3253:A2 0
11 *3252:A1 *240:83 0
12 *3252:A1 *930:27 0
13 *3334:A1 *326:103 0
14 *3334:A1 *329:27 0.000779927
15 *3334:A1 *351:24 0.000121193
16 *3334:A1 *930:25 0
17 *140:19 *3251:A2 1.5015e-05
18 *140:19 *930:25 0
19 *3510:D *3334:A1 5.87561e-06
20 *41:12 *3252:A1 0
21 *41:12 *140:10 0.000232265
*RES
1 *3135:ZN *140:10 14.64 
2 *140:10 *3334:A1 8.072 
3 *140:10 *140:19 0.532 
4 *140:19 *3251:A1 4.5 
5 *140:19 *3252:A1 14.716 
*END

*D_NET *141 0.00201696
*CONN
*I *3146:A2 I *D gf180mcu_fd_sc_mcu7t5v0__nor2_1
*I *3340:A1 I *D gf180mcu_fd_sc_mcu7t5v0__aoi21_1
*I *3136:ZN O *D gf180mcu_fd_sc_mcu7t5v0__clkinv_1
*CAP
1 *3146:A2 0.0002657
2 *3340:A1 0.000500232
3 *3136:ZN 0
4 *141:4 0.000765932
5 *3146:A2 *3147:A2 0
6 *3146:A2 *3260:A1 0
7 *3146:A2 *150:8 0
8 *3146:A2 *329:294 3.13605e-05
9 *3146:A2 *418:23 0
10 *3146:A2 *422:21 2.22758e-05
11 *3340:A1 *3260:A1 0.000425705
12 *3340:A1 *3353:I1 5.75752e-06
13 *3340:A1 *422:21 0
*RES
1 *3136:ZN *141:4 4.5 
2 *141:4 *3340:A1 8.3 
3 *141:4 *3146:A2 6.172 
*END

*D_NET *142 0.00105696
*CONN
*I *3258:A1 I *D gf180mcu_fd_sc_mcu7t5v0__aoi22_1
*I *3137:ZN O *D gf180mcu_fd_sc_mcu7t5v0__clkinv_1
*CAP
1 *3258:A1 0.000214721
2 *3137:ZN 0.000214721
3 *3258:A1 *3256:A2 4.68919e-05
4 *3258:A1 *3258:B1 3.73535e-05
5 *3258:A1 *238:69 0.000226661
6 *3258:A1 *238:73 8.15645e-05
7 *3258:A1 *283:43 0.00015398
8 *3258:A1 *934:29 5.49382e-05
9 *3443:D *3258:A1 2.6126e-05
*RES
1 *3137:ZN *3258:A1 20.052 
*END

*D_NET *143 0.000427083
*CONN
*I *3261:A1 I *D gf180mcu_fd_sc_mcu7t5v0__aoi22_1
*I *3138:ZN O *D gf180mcu_fd_sc_mcu7t5v0__clkinv_1
*CAP
1 *3261:A1 9.07286e-05
2 *3138:ZN 9.07286e-05
3 *3261:A1 *3261:A2 5.76373e-06
4 *3261:A1 *238:69 3.87828e-05
5 *3444:D *3261:A1 0.00020108
*RES
1 *3138:ZN *3261:A1 9.912 
*END

*D_NET *144 0.0138941
*CONN
*I *3154:A1 I *D gf180mcu_fd_sc_mcu7t5v0__nor2_1
*I *3155:A1 I *D gf180mcu_fd_sc_mcu7t5v0__xor2_1
*I *3342:A1 I *D gf180mcu_fd_sc_mcu7t5v0__aoi21_1
*I *3139:ZN O *D gf180mcu_fd_sc_mcu7t5v0__clkinv_1
*CAP
1 *3154:A1 0.000225614
2 *3155:A1 0
3 *3342:A1 0.000231156
4 *3139:ZN 0.000210137
5 *144:33 0.00212772
6 *144:8 0.0023434
7 *3154:A1 *3155:A2 0.000453567
8 *3154:A1 *328:12 1.3758e-05
9 *3154:A1 *329:294 4.97712e-06
10 *3154:A1 *382:14 7.83779e-05
11 *3154:A1 *383:10 0.000262996
12 *3342:A1 *3263:A1 1.31444e-05
13 *3342:A1 *3452:CLK 1.91917e-06
14 *3342:A1 *240:14 8.05328e-06
15 *3342:A1 *240:29 0.00119757
16 *3342:A1 *241:10 0
17 *3342:A1 *283:20 4.58601e-06
18 *3342:A1 *337:12 0.000255222
19 *144:8 *240:14 9.20895e-05
20 *144:8 *240:29 8.15645e-05
21 *144:8 *240:83 4.32304e-05
22 *144:8 *341:38 0
23 *144:33 *3139:I 0
24 *144:33 *3166:B 0.000301553
25 *144:33 *3167:A2 0.000493307
26 *144:33 *3167:B1 6.06469e-05
27 *144:33 *3169:A1 2.60662e-05
28 *144:33 *3262:A1 0.000166501
29 *144:33 *3262:A2 0.000194469
30 *144:33 *3264:A2 4.02877e-05
31 *144:33 *3264:B1 0.000379274
32 *144:33 *3264:B2 0.00133875
33 *144:33 *3266:B2 7.83779e-05
34 *144:33 *3268:A1 0
35 *144:33 *3268:B 0
36 *144:33 *3446:CLKN 0.000118208
37 *144:33 *3506:D 2.96621e-05
38 *144:33 *238:33 1.952e-06
39 *144:33 *238:44 0
40 *144:33 *240:29 7.83779e-05
41 *144:33 *247:10 1.3758e-05
42 *144:33 *329:42 0
43 *144:33 *334:20 0.000953336
44 *144:33 *382:14 0.000786941
45 *144:33 *418:23 2.17434e-05
46 *144:33 *422:12 7.57767e-05
47 *3158:A1 *144:33 0.000103272
48 *3166:A2 *144:33 5.76749e-06
49 *3445:D *144:33 0.000783013
50 *3452:D *3342:A1 0.000193942
*RES
1 *3139:ZN *144:8 10.596 
2 *144:8 *3342:A1 12.648 
3 *144:8 *144:33 23.804 
4 *144:33 *3155:A1 4.5 
5 *144:33 *3154:A1 15.704 
*END

*D_NET *145 0.000615756
*CONN
*I *3264:A1 I *D gf180mcu_fd_sc_mcu7t5v0__aoi22_1
*I *3140:ZN O *D gf180mcu_fd_sc_mcu7t5v0__clkinv_1
*CAP
1 *3264:A1 3.69325e-05
2 *3140:ZN 3.69325e-05
3 *3264:A1 *3264:A2 0.000211991
4 *3264:A1 *3266:B1 0
5 *3264:A1 *342:53 0.000329899
*RES
1 *3140:ZN *3264:A1 18.836 
*END

*D_NET *146 0.000978751
*CONN
*I *3266:A1 I *D gf180mcu_fd_sc_mcu7t5v0__aoi22_1
*I *3141:ZN O *D gf180mcu_fd_sc_mcu7t5v0__clkinv_1
*CAP
1 *3266:A1 0.00029242
2 *3141:ZN 0.00029242
3 *3266:A1 *239:16 3.10545e-05
4 *3266:A1 *240:83 2.6583e-05
5 *3266:A1 *341:30 0.000336272
*RES
1 *3141:ZN *3266:A1 20.432 
*END

*D_NET *147 0.000436099
*CONN
*I *3269:A1 I *D gf180mcu_fd_sc_mcu7t5v0__aoi22_1
*I *3142:ZN O *D gf180mcu_fd_sc_mcu7t5v0__clkinv_1
*CAP
1 *3269:A1 0.000139672
2 *3142:ZN 0.000139672
3 *3269:A1 *3269:A2 7.83779e-05
4 *3447:D *3269:A1 7.83779e-05
5 *3448:D *3269:A1 0
*RES
1 *3142:ZN *3269:A1 9.836 
*END

*D_NET *148 0.000966287
*CONN
*I *3271:A1 I *D gf180mcu_fd_sc_mcu7t5v0__aoi22_1
*I *3143:ZN O *D gf180mcu_fd_sc_mcu7t5v0__clkinv_1
*CAP
1 *3271:A1 0.000438931
2 *3143:ZN 0.000438931
3 *3271:A1 *3271:A2 8.8425e-05
4 oSPI_MISO_OUT *3271:A1 0
*RES
1 *3143:ZN *3271:A1 21.268 
*END

*D_NET *149 0.00187354
*CONN
*I *3149:A2 I *D gf180mcu_fd_sc_mcu7t5v0__nand2_1
*I *3361:A2 I *D gf180mcu_fd_sc_mcu7t5v0__oai21_1
*I *3145:ZN O *D gf180mcu_fd_sc_mcu7t5v0__clkinv_1
*CAP
1 *3149:A2 0.000541376
2 *3361:A2 0.000277421
3 *3145:ZN 0
4 *149:6 0.000818797
5 *3149:A2 *3153:B 0
6 *3149:A2 *328:42 0
7 *3149:A2 *338:66 0
8 *3361:A2 *3145:I 5.75752e-06
9 *3361:A2 *338:47 3.19219e-05
10 *3361:A2 *338:62 0.000109831
11 *3361:A2 *338:66 0
12 *3468:D *3361:A2 8.84331e-05
*RES
1 *3145:ZN *149:6 9 
2 *149:6 *3361:A2 10.824 
3 *149:6 *3149:A2 11.888 
*END

*D_NET *150 0.00286907
*CONN
*I *3157:A1 I *D gf180mcu_fd_sc_mcu7t5v0__oai21_1
*I *3165:A1 I *D gf180mcu_fd_sc_mcu7t5v0__oai21_1
*I *3156:A1 I *D gf180mcu_fd_sc_mcu7t5v0__or3_1
*I *3146:ZN O *D gf180mcu_fd_sc_mcu7t5v0__nor2_1
*CAP
1 *3157:A1 8.84189e-05
2 *3165:A1 0
3 *3156:A1 0.000117322
4 *3146:ZN 0
5 *150:8 0.000390039
6 *150:4 0.000361135
7 *3156:A1 *3168:A2 8.62117e-05
8 *3156:A1 *157:44 0.000245117
9 *3157:A1 *3147:A1 4.78829e-05
10 *3157:A1 *3157:A2 1.97747e-05
11 *3157:A1 *161:14 2.6126e-05
12 *3157:A1 *382:14 3.19219e-05
13 *3157:A1 *418:23 2.96621e-05
14 *150:8 *3112:I 0.000269291
15 *150:8 *3166:B 5.8734e-05
16 *150:8 *3167:A2 0.000299179
17 *150:8 *157:44 2.23385e-05
18 *150:8 *158:8 4.58601e-06
19 *150:8 *329:294 0.000246496
20 *3146:A2 *150:8 0
21 *3166:A1 *3157:A1 0.000326528
22 *3166:A1 *150:8 6.85937e-05
23 *3166:A2 *3157:A1 0.000129714
*RES
1 *3146:ZN *150:4 4.5 
2 *150:4 *150:8 3.344 
3 *150:8 *3156:A1 14.792 
4 *150:8 *3165:A1 4.5 
5 *150:4 *3157:A1 14.868 
*END

*D_NET *151 0.000295153
*CONN
*I *3148:I I *D gf180mcu_fd_sc_mcu7t5v0__clkinv_1
*I *3147:ZN O *D gf180mcu_fd_sc_mcu7t5v0__xnor2_1
*CAP
1 *3148:I 0.000136714
2 *3147:ZN 0.000136714
3 *3148:I *3164:A1 2.17248e-05
4 *3148:I *328:42 0
*RES
1 *3147:ZN *3148:I 9.836 
*END

*D_NET *152 0.00222832
*CONN
*I *3153:B I *D gf180mcu_fd_sc_mcu7t5v0__aoi21_1
*I *3159:A1 I *D gf180mcu_fd_sc_mcu7t5v0__and3_1
*I *3148:ZN O *D gf180mcu_fd_sc_mcu7t5v0__clkinv_1
*CAP
1 *3153:B 0.000119851
2 *3159:A1 0
3 *3148:ZN 0.000204258
4 *152:14 0.000324109
5 *3153:B *3153:A1 0.000317503
6 *3153:B *328:42 3.9202e-05
7 *152:14 *3153:A2 5.43087e-05
8 *152:14 *3161:A1 0
9 *152:14 *3163:B 2.49387e-05
10 *152:14 *3164:A1 3.10545e-05
11 *152:14 *3537:I 2.28343e-05
12 *152:14 *156:19 7.26556e-05
13 *152:14 *157:12 0
14 *152:14 *157:25 0.000380904
15 *152:14 *328:42 3.42838e-05
16 *152:14 *417:38 0.000602423
17 *3149:A2 *3153:B 0
*RES
1 *3148:ZN *152:14 16.16 
2 *152:14 *3159:A1 4.5 
3 *152:14 *3153:B 5.64 
*END

*D_NET *153 0.00112761
*CONN
*I *3153:A1 I *D gf180mcu_fd_sc_mcu7t5v0__aoi21_1
*I *3159:A2 I *D gf180mcu_fd_sc_mcu7t5v0__and3_1
*I *3149:ZN O *D gf180mcu_fd_sc_mcu7t5v0__nand2_1
*CAP
1 *3153:A1 2.06542e-05
2 *3159:A2 0
3 *3149:ZN 7.16756e-05
4 *153:10 9.23299e-05
5 *3153:A1 *328:42 0.000285208
6 *153:10 *156:19 0.000340241
7 *3153:B *3153:A1 0.000317503
*RES
1 *3149:ZN *153:10 14.336 
2 *153:10 *3159:A2 4.5 
3 *153:10 *3153:A1 5.336 
*END

*D_NET *154 0.000635979
*CONN
*I *3152:B I *D gf180mcu_fd_sc_mcu7t5v0__oai21_1
*I *3150:ZN O *D gf180mcu_fd_sc_mcu7t5v0__xnor2_1
*CAP
1 *3152:B 0.000167358
2 *3150:ZN 0.000167358
3 *3152:B *3150:A1 1.91917e-06
4 *3152:B *3150:A2 5.6425e-05
5 *3152:B *3152:A2 1.91917e-06
6 *3152:B *3161:A2 0.000114072
7 *3152:B *3556:I 2.6126e-05
8 *3152:B *381:8 1.52691e-05
9 *3152:B *421:68 0
10 *3152:A1 *3152:B 8.55327e-05
*RES
1 *3150:ZN *3152:B 10.292 
*END

*D_NET *155 0.000386036
*CONN
*I *3160:B I *D gf180mcu_fd_sc_mcu7t5v0__oai21_1
*I *3151:Z O *D gf180mcu_fd_sc_mcu7t5v0__xor2_1
*CAP
1 *3160:B 0.000135297
2 *3151:Z 0.000135297
3 *3160:B *3161:A2 6.91851e-05
4 *3152:A1 *3160:B 1.11891e-05
5 *3359:A1 *3160:B 3.50686e-05
*RES
1 *3151:Z *3160:B 19.14 
*END

*D_NET *156 0.00264385
*CONN
*I *3153:A2 I *D gf180mcu_fd_sc_mcu7t5v0__aoi21_1
*I *3159:A3 I *D gf180mcu_fd_sc_mcu7t5v0__and3_1
*I *3161:A1 I *D gf180mcu_fd_sc_mcu7t5v0__aoi21_1
*I *3152:ZN O *D gf180mcu_fd_sc_mcu7t5v0__oai21_1
*CAP
1 *3153:A2 7.83605e-05
2 *3159:A3 0
3 *3161:A1 0.000129993
4 *3152:ZN 8.79472e-05
5 *156:19 0.000151249
6 *156:8 0.000290828
7 *3153:A2 *3164:A1 1.76898e-05
8 *3153:A2 *157:12 0.000319859
9 *3153:A2 *328:42 0.000251848
10 *3161:A1 *3152:A2 0.000406668
11 *3161:A1 *417:38 0
12 *156:8 *3149:A1 0.000179251
13 *156:8 *3537:I 1.41048e-05
14 *156:19 *3149:A1 0.000151957
15 *156:19 *3537:I 9.6887e-05
16 *152:14 *3153:A2 5.43087e-05
17 *152:14 *3161:A1 0
18 *152:14 *156:19 7.26556e-05
19 *153:10 *156:19 0.000340241
*RES
1 *3152:ZN *156:8 9.532 
2 *156:8 *3161:A1 10.14 
3 *156:8 *156:19 1.596 
4 *156:19 *3159:A3 9 
5 *156:19 *3153:A2 10.368 
*END

*D_NET *157 0.005551
*CONN
*I *3165:A2 I *D gf180mcu_fd_sc_mcu7t5v0__oai21_1
*I *3156:A2 I *D gf180mcu_fd_sc_mcu7t5v0__or3_1
*I *3157:A2 I *D gf180mcu_fd_sc_mcu7t5v0__oai21_1
*I *3163:A1 I *D gf180mcu_fd_sc_mcu7t5v0__oai21_1
*I *3162:A2 I *D gf180mcu_fd_sc_mcu7t5v0__oai31_1
*I *3153:ZN O *D gf180mcu_fd_sc_mcu7t5v0__aoi21_1
*CAP
1 *3165:A2 0
2 *3156:A2 0
3 *3157:A2 0.000354558
4 *3163:A1 0
5 *3162:A2 5.64401e-05
6 *3153:ZN 0.000111297
7 *157:44 0.000507551
8 *157:36 0.00034004
9 *157:25 0.000283384
10 *157:12 0.000264073
11 *3157:A2 *3157:B 0.000124339
12 *3157:A2 *3166:B 0.000238786
13 *3157:A2 *3167:A1 1.44832e-05
14 *3157:A2 *161:14 0.000299179
15 *3157:A2 *328:12 8.54072e-05
16 *3162:A2 *3162:A3 0.000230244
17 *3162:A2 *328:42 9.28683e-05
18 *157:12 *3162:A3 8.55327e-05
19 *157:12 *3164:A1 0.000126873
20 *157:12 *328:42 1.24512e-05
21 *157:25 *3163:A2 0.000197186
22 *157:36 *3112:I 0.00018116
23 *157:36 *3168:A2 0.000145586
24 *157:36 *417:38 2.93981e-05
25 *157:44 *3112:I 0.000255707
26 *157:44 *3167:A2 0.000191864
27 *157:44 *3168:A2 0
28 *157:44 *329:294 0.000147305
29 *3153:A2 *157:12 0.000319859
30 *3156:A1 *157:44 0.000245117
31 *3157:A1 *3157:A2 1.97747e-05
32 *3158:A1 *3157:A2 0.000128288
33 *3166:A1 *3157:A2 5.90103e-05
34 *150:8 *157:44 2.23385e-05
35 *152:14 *157:12 0
36 *152:14 *157:25 0.000380904
*RES
1 *3153:ZN *157:12 14.868 
2 *157:12 *3162:A2 5.184 
3 *157:12 *157:25 5.716 
4 *157:25 *3163:A1 9 
5 *157:25 *157:36 6.552 
6 *157:36 *157:44 11.28 
7 *157:44 *3157:A2 8.224 
8 *157:44 *3156:A2 4.5 
9 *157:36 *3165:A2 4.5 
*END

*D_NET *158 0.00372817
*CONN
*I *3165:B I *D gf180mcu_fd_sc_mcu7t5v0__oai21_1
*I *3166:B I *D gf180mcu_fd_sc_mcu7t5v0__aoi21_1
*I *3154:ZN O *D gf180mcu_fd_sc_mcu7t5v0__nor2_1
*CAP
1 *3165:B 0
2 *3166:B 0.000277606
3 *3154:ZN 0.000266089
4 *158:8 0.000543695
5 *3166:B *3112:I 0.000269291
6 *3166:B *3167:A2 0
7 *3166:B *161:14 0.000435281
8 *3166:B *328:12 0.00015399
9 *3166:B *382:14 0.000301553
10 *158:8 *328:12 0.000198036
11 *158:8 *329:294 4.72445e-05
12 *3157:A2 *3166:B 0.000238786
13 *3166:A1 *3166:B 3.08902e-05
14 *3166:A2 *3166:B 0.000600832
15 *144:33 *3166:B 0.000301553
16 *150:8 *3166:B 5.8734e-05
17 *150:8 *158:8 4.58601e-06
*RES
1 *3154:ZN *158:8 6.628 
2 *158:8 *3166:B 18.44 
3 *158:8 *3165:B 4.5 
*END

*D_NET *159 0.00323165
*CONN
*I *3156:A3 I *D gf180mcu_fd_sc_mcu7t5v0__or3_1
*I *3157:B I *D gf180mcu_fd_sc_mcu7t5v0__oai21_1
*I *3155:Z O *D gf180mcu_fd_sc_mcu7t5v0__xor2_1
*CAP
1 *3156:A3 0
2 *3157:B 0.000171445
3 *3155:Z 0.000288363
4 *159:10 0.000459807
5 *3157:B *3167:A1 2.96621e-05
6 *3157:B *328:12 5.88975e-06
7 *3157:B *382:14 0.00121926
8 *3157:B *418:23 0.000145228
9 *159:10 *328:12 0.000121193
10 *159:10 *382:14 0.000348973
11 *3157:A2 *3157:B 0.000124339
12 *3158:A1 *3157:B 0.000317494
*RES
1 *3155:Z *159:10 7.312 
2 *159:10 *3157:B 7.768 
3 *159:10 *3156:A3 4.5 
*END

*D_NET *160 0.000229378
*CONN
*I *3158:A2 I *D gf180mcu_fd_sc_mcu7t5v0__and3_1
*I *3156:Z O *D gf180mcu_fd_sc_mcu7t5v0__or3_1
*CAP
1 *3158:A2 8.78422e-05
2 *3156:Z 8.78422e-05
3 *3158:A2 *3167:A2 1.34641e-06
4 *3158:A2 *3168:A2 5.23469e-05
5 *3158:A1 *3158:A2 0
*RES
1 *3156:Z *3158:A2 18.684 
*END

*D_NET *161 0.00293075
*CONN
*I *3158:A3 I *D gf180mcu_fd_sc_mcu7t5v0__and3_1
*I *3167:B2 I *D gf180mcu_fd_sc_mcu7t5v0__aoi221_1
*I *3157:ZN O *D gf180mcu_fd_sc_mcu7t5v0__oai21_1
*CAP
1 *3158:A3 0.000347653
2 *3167:B2 0
3 *3157:ZN 0.000284195
4 *161:14 0.000631848
5 *3158:A3 *3167:A2 2.75585e-05
6 *3158:A3 *3168:A1 4.13547e-05
7 *3158:A3 *3168:A2 0
8 *3158:A3 *328:97 0
9 *161:14 *3167:A1 0.000260718
10 *161:14 *3167:A2 0
11 *161:14 *3167:B1 1.3758e-05
12 *161:14 *3167:C 0.000269857
13 *161:14 *418:23 5.61561e-05
14 *3157:A1 *161:14 2.6126e-05
15 *3157:A2 *161:14 0.000299179
16 *3158:A1 *3158:A3 8.38119e-05
17 *3158:A1 *161:14 0
18 *3166:A2 *161:14 0.000153254
19 *3166:B *161:14 0.000435281
*RES
1 *3157:ZN *161:14 16.92 
2 *161:14 *3167:B2 4.5 
3 *161:14 *3158:A3 6.932 
*END

*D_NET *162 0.000808467
*CONN
*I *3168:A1 I *D gf180mcu_fd_sc_mcu7t5v0__oai21_1
*I *3158:Z O *D gf180mcu_fd_sc_mcu7t5v0__and3_1
*CAP
1 *3168:A1 0.000241484
2 *3158:Z 0.000241484
3 *3168:A1 *3168:A2 0.000284144
4 *3158:A3 *3168:A1 4.13547e-05
*RES
1 *3158:Z *3168:A1 11.128 
*END

*D_NET *163 0.00097638
*CONN
*I *3163:A2 I *D gf180mcu_fd_sc_mcu7t5v0__oai21_1
*I *3162:A3 I *D gf180mcu_fd_sc_mcu7t5v0__oai31_1
*I *3159:Z O *D gf180mcu_fd_sc_mcu7t5v0__and3_1
*CAP
1 *3163:A2 5.56285e-05
2 *3162:A3 9.56304e-05
3 *3159:Z 0
4 *163:4 0.000151259
5 *3162:A3 *3164:A1 0.0001609
6 *3162:A2 *3162:A3 0.000230244
7 *157:12 *3162:A3 8.55327e-05
8 *157:25 *3163:A2 0.000197186
*RES
1 *3159:Z *163:4 4.5 
2 *163:4 *3162:A3 5.564 
3 *163:4 *3163:A2 14.032 
*END

*D_NET *164 0.00240168
*CONN
*I *3161:A2 I *D gf180mcu_fd_sc_mcu7t5v0__aoi21_1
*I *3160:ZN O *D gf180mcu_fd_sc_mcu7t5v0__oai21_1
*CAP
1 *3161:A2 0.000298738
2 *3160:ZN 0.000298738
3 *3161:A2 *3149:A1 9.57914e-06
4 *3161:A2 *3152:A2 5.79153e-05
5 *3161:A2 *3160:A1 9.26705e-05
6 *3161:A2 *3537:I 0.000183398
7 *3161:A2 *3556:I 2.6126e-05
8 *3161:A2 *320:69 5.70962e-05
9 *3152:A1 *3161:A2 0.000846633
10 *3152:B *3161:A2 0.000114072
11 *3160:A2 *3161:A2 8.55327e-05
12 *3160:B *3161:A2 6.91851e-05
13 *3359:A1 *3161:A2 0.000261992
*RES
1 *3160:ZN *3161:A2 22.028 
*END

*D_NET *165 0.000708984
*CONN
*I *3162:B I *D gf180mcu_fd_sc_mcu7t5v0__oai31_1
*I *3161:ZN O *D gf180mcu_fd_sc_mcu7t5v0__aoi21_1
*CAP
1 *3162:B 0.000205043
2 *3161:ZN 0.000205043
3 *3162:B *3537:I 0.000298898
4 *3161:B *3162:B 0
5 *3166:A2 *3162:B 0
*RES
1 *3161:ZN *3162:B 19.596 
*END

*D_NET *166 0.00115817
*CONN
*I *3164:A1 I *D gf180mcu_fd_sc_mcu7t5v0__and2_1
*I *3162:ZN O *D gf180mcu_fd_sc_mcu7t5v0__oai31_1
*CAP
1 *3164:A1 0.000292538
2 *3162:ZN 0.000292538
3 *3164:A1 *3163:B 9.5608e-06
4 *3164:A1 *3164:A2 0.000149579
5 *3164:A1 *3537:I 0
6 *3164:A1 *328:42 5.5715e-05
7 *3148:I *3164:A1 2.17248e-05
8 *3153:A2 *3164:A1 1.76898e-05
9 *3162:A3 *3164:A1 0.0001609
10 *152:14 *3164:A1 3.10545e-05
11 *157:12 *3164:A1 0.000126873
*RES
1 *3162:ZN *3164:A1 11.812 
*END

*D_NET *167 0.000401013
*CONN
*I *3164:A2 I *D gf180mcu_fd_sc_mcu7t5v0__and2_1
*I *3163:ZN O *D gf180mcu_fd_sc_mcu7t5v0__oai21_1
*CAP
1 *3164:A2 0.000125717
2 *3163:ZN 0.000125717
3 *3164:A1 *3164:A2 0.000149579
*RES
1 *3163:ZN *3164:A2 10.064 
*END

*D_NET *168 0.0032123
*CONN
*I *3168:A2 I *D gf180mcu_fd_sc_mcu7t5v0__oai21_1
*I *3164:Z O *D gf180mcu_fd_sc_mcu7t5v0__and2_1
*CAP
1 *3168:A2 0.0012084
2 *3164:Z 0.0012084
3 *3168:A2 *3155:A2 0
4 *3168:A2 *3364:A2 0
5 *3168:A2 *3508:CLK 0.000106097
6 *3168:A2 *328:97 0.000121112
7 *3168:A2 *383:10 0
8 *3156:A1 *3168:A2 8.62117e-05
9 *3158:A2 *3168:A2 5.23469e-05
10 *3158:A3 *3168:A2 0
11 *3168:A1 *3168:A2 0.000284144
12 *157:36 *3168:A2 0.000145586
13 *157:44 *3168:A2 0
*RES
1 *3164:Z *3168:A2 27.424 
*END

*D_NET *169 0.00256051
*CONN
*I *3167:A2 I *D gf180mcu_fd_sc_mcu7t5v0__aoi221_1
*I *3165:ZN O *D gf180mcu_fd_sc_mcu7t5v0__oai21_1
*CAP
1 *3167:A2 0.000525288
2 *3165:ZN 0.000525288
3 *3167:A2 *3112:I 5.27305e-05
4 *3167:A2 *3167:A1 0
5 *3167:A2 *3167:B1 1.02578e-05
6 *3167:A2 *329:294 9.58084e-05
7 *3158:A1 *3167:A2 0.000337887
8 *3158:A2 *3167:A2 1.34641e-06
9 *3158:A3 *3167:A2 2.75585e-05
10 *3166:B *3167:A2 0
11 *144:33 *3167:A2 0.000493307
12 *150:8 *3167:A2 0.000299179
13 *157:44 *3167:A2 0.000191864
14 *161:14 *3167:A2 0
*RES
1 *3165:ZN *3167:A2 22.788 
*END

*D_NET *170 0.000566645
*CONN
*I *3167:B1 I *D gf180mcu_fd_sc_mcu7t5v0__aoi221_1
*I *3166:ZN O *D gf180mcu_fd_sc_mcu7t5v0__aoi21_1
*CAP
1 *3167:B1 0.00014279
2 *3166:ZN 0.00014279
3 *3166:A2 *3167:B1 0.000196402
4 *3167:A2 *3167:B1 1.02578e-05
5 *144:33 *3167:B1 6.06469e-05
6 *161:14 *3167:B1 1.3758e-05
*RES
1 *3166:ZN *3167:B1 10.216 
*END

*D_NET *171 0.000420489
*CONN
*I *3168:B I *D gf180mcu_fd_sc_mcu7t5v0__oai21_1
*I *3167:ZN O *D gf180mcu_fd_sc_mcu7t5v0__aoi221_1
*CAP
1 *3168:B 9.88796e-05
2 *3167:ZN 9.88796e-05
3 *3168:B *3167:C 0.00022273
*RES
1 *3167:ZN *3168:B 19.14 
*END

*D_NET *172 0.000247729
*CONN
*I *3177:A2 I *D gf180mcu_fd_sc_mcu7t5v0__nor2_1
*I *3176:ZN O *D gf180mcu_fd_sc_mcu7t5v0__aoi21_1
*CAP
1 *3177:A2 0.000122579
2 *3176:ZN 0.000122579
3 *3177:A2 *3545:I 2.57058e-06
*RES
1 *3176:ZN *3177:A2 9.684 
*END

*D_NET *173 0.000531273
*CONN
*I *3180:B I *D gf180mcu_fd_sc_mcu7t5v0__aoi21_1
*I *3178:Z O *D gf180mcu_fd_sc_mcu7t5v0__and2_1
*CAP
1 *3180:B 0.000227632
2 *3178:Z 0.000227632
3 *3180:B *3178:A2 0
4 *3180:B *3189:A2 7.60086e-05
*RES
1 *3178:Z *3180:B 10.52 
*END

*D_NET *174 0.0032691
*CONN
*I *3188:A2 I *D gf180mcu_fd_sc_mcu7t5v0__xor2_1
*I *3180:A2 I *D gf180mcu_fd_sc_mcu7t5v0__aoi21_1
*I *3179:Z O *D gf180mcu_fd_sc_mcu7t5v0__xor2_1
*CAP
1 *3188:A2 0.000201992
2 *3180:A2 0
3 *3179:Z 0.000297307
4 *174:12 0.0004993
5 *3188:A2 *3189:A2 4.725e-05
6 *3188:A2 *3320:I0 4.58601e-06
7 *3188:A2 *3499:CLK 0.000768915
8 *3188:A2 *408:20 0
9 *174:12 *3189:A2 3.73535e-05
10 *174:12 *3320:I0 0.000205447
11 *174:12 *3320:I1 0.000476427
12 *174:12 *390:12 0.000730521
13 *3494:D *174:12 0
*RES
1 *3179:Z *174:12 17.148 
2 *174:12 *3180:A2 4.5 
3 *174:12 *3188:A2 15.78 
*END

*D_NET *175 0.00438851
*CONN
*I *3187:A1 I *D gf180mcu_fd_sc_mcu7t5v0__nand2_1
*I *3184:A1 I *D gf180mcu_fd_sc_mcu7t5v0__nor2_1
*I *3186:A1 I *D gf180mcu_fd_sc_mcu7t5v0__and2_1
*I *3185:A1 I *D gf180mcu_fd_sc_mcu7t5v0__or2_1
*I *3189:A2 I *D gf180mcu_fd_sc_mcu7t5v0__xor3_1
*I *3180:ZN O *D gf180mcu_fd_sc_mcu7t5v0__aoi21_1
*CAP
1 *3187:A1 4.30947e-05
2 *3184:A1 4.83873e-05
3 *3186:A1 2.88537e-05
4 *3185:A1 0
5 *3189:A2 0.00043394
6 *3180:ZN 0.000121031
7 *175:42 0.000556479
8 *175:27 0.000688483
9 *175:18 0.000507541
10 *3184:A1 *3187:A2 4.14296e-05
11 *3186:A1 *3203:B 0
12 *3186:A1 *3230:A1 1.02578e-05
13 *3187:A1 *3187:A2 0.000111021
14 *3187:A1 *182:8 6.97081e-05
15 *3189:A2 *3178:A2 0
16 *3189:A2 *3532:I 0
17 *3189:A2 *408:12 0.000255722
18 *175:18 *3532:I 4.22854e-06
19 *175:18 *178:25 8.71765e-05
20 *175:18 *408:12 2.22657e-05
21 *175:18 *408:20 0.000142175
22 *175:18 *408:31 2.03665e-05
23 *175:27 *3186:A2 0
24 *175:27 *3230:A1 0
25 *175:27 *178:25 0.000126873
26 *175:27 *408:31 9.67157e-05
27 *175:42 *3187:A2 4.75952e-05
28 *175:42 *3212:A2 4.56845e-05
29 *175:42 *3230:A1 0.000224422
30 *175:42 *3230:A2 0.000341937
31 *175:42 *178:53 3.43796e-06
32 *175:42 *182:8 0.000149068
33 *175:42 *210:6 0
34 *175:42 *408:31 0
35 *3180:B *3189:A2 7.60086e-05
36 *3188:A2 *3189:A2 4.725e-05
37 *174:12 *3189:A2 3.73535e-05
*RES
1 *3180:ZN *3189:A2 10.292 
2 *3189:A2 *175:18 6.856 
3 *175:18 *3185:A1 4.5 
4 *175:18 *175:27 1.824 
5 *175:27 *3186:A1 4.728 
6 *175:27 *175:42 3.952 
7 *175:42 *3184:A1 4.88 
8 *175:42 *3187:A1 5.032 
*END

*D_NET *176 0.000476577
*CONN
*I *3204:B I *D gf180mcu_fd_sc_mcu7t5v0__oai21_1
*I *3181:ZN O *D gf180mcu_fd_sc_mcu7t5v0__nand2_1
*CAP
1 *3204:B 6.3086e-05
2 *3181:ZN 6.3086e-05
3 *3204:B *3181:A1 0.000255714
4 *3204:B *3182:A2 2.98535e-05
5 *3204:B *3183:A1 0
6 *3204:B *3204:A2 3.73627e-05
7 *3204:B *343:470 2.74753e-05
*RES
1 *3181:ZN *3204:B 9.836 
*END

*D_NET *177 0.000725249
*CONN
*I *3204:A2 I *D gf180mcu_fd_sc_mcu7t5v0__oai21_1
*I *3182:ZN O *D gf180mcu_fd_sc_mcu7t5v0__nor2_1
*CAP
1 *3204:A2 0.000247764
2 *3182:ZN 0.000247764
3 *3204:A2 *3182:A1 0.000147313
4 *3204:A2 *199:10 4.50449e-05
5 *3204:B *3204:A2 3.73627e-05
*RES
1 *3182:ZN *3204:A2 10.824 
*END

*D_NET *178 0.00635112
*CONN
*I *3187:A2 I *D gf180mcu_fd_sc_mcu7t5v0__nand2_1
*I *3184:A2 I *D gf180mcu_fd_sc_mcu7t5v0__nor2_1
*I *3185:A2 I *D gf180mcu_fd_sc_mcu7t5v0__or2_1
*I *3189:A3 I *D gf180mcu_fd_sc_mcu7t5v0__xor3_1
*I *3186:A2 I *D gf180mcu_fd_sc_mcu7t5v0__and2_1
*I *3183:Z O *D gf180mcu_fd_sc_mcu7t5v0__xor3_1
*CAP
1 *3187:A2 0.000238862
2 *3184:A2 0
3 *3185:A2 0
4 *3189:A3 0.000491084
5 *3186:A2 1.90916e-05
6 *3183:Z 0
7 *178:53 0.000660038
8 *178:25 0.000713836
9 *178:10 0.000653472
10 *178:4 0.000832804
11 *3186:A2 *3230:A1 8.55327e-05
12 *3187:A2 *3230:B1 0
13 *3187:A2 *210:6 6.87573e-05
14 *3189:A3 *3532:I 0.000136871
15 *3189:A3 *408:20 4.13778e-05
16 *178:10 *3218:A2 1.18037e-05
17 *178:10 *3230:B2 0.000191531
18 *178:10 *3326:A1 0
19 *178:10 *195:14 2.67803e-05
20 *178:10 *211:8 0.000200343
21 *178:25 *3203:B 2.22657e-05
22 *178:25 *3230:A1 1.0183e-05
23 *178:25 *195:14 0.000108139
24 *178:53 *3326:A1 0
25 *178:53 *3554:I 0.000310273
26 *178:53 *210:6 1.72091e-05
27 *178:53 *212:14 0.000686632
28 *3183:A3 *178:53 0.000134564
29 *3184:A1 *3187:A2 4.14296e-05
30 *3187:A1 *3187:A2 0.000111021
31 *3327:A1 *178:10 6.24444e-05
32 *129:8 *3189:A3 0.000158886
33 *129:8 *178:10 2.67619e-05
34 *129:8 *178:25 2.40434e-05
35 *175:18 *178:25 8.71765e-05
36 *175:27 *3186:A2 0
37 *175:27 *178:25 0.000126873
38 *175:42 *3187:A2 4.75952e-05
39 *175:42 *178:53 3.43796e-06
*RES
1 *3183:Z *178:4 4.5 
2 *178:4 *178:10 7.844 
3 *178:10 *3186:A2 9.228 
4 *178:10 *178:25 6.628 
5 *178:25 *3189:A3 17.148 
6 *178:25 *3185:A2 4.5 
7 *178:4 *178:53 12.876 
8 *178:53 *3184:A2 4.5 
9 *178:53 *3187:A2 6.476 
*END

*D_NET *179 0.00156038
*CONN
*I *3212:C I *D gf180mcu_fd_sc_mcu7t5v0__aoi211_1
*I *3202:B I *D gf180mcu_fd_sc_mcu7t5v0__aoi21_1
*I *3184:ZN O *D gf180mcu_fd_sc_mcu7t5v0__nor2_1
*CAP
1 *3212:C 0.000171507
2 *3202:B 1.18485e-05
3 *3184:ZN 0.000262362
4 *179:8 0.000445717
5 *3202:B *3202:A1 8.39178e-05
6 *3202:B *205:6 3.5555e-05
7 *3212:C *3202:A1 1.95729e-05
8 *3212:C *197:10 7.14955e-06
9 *3212:C *205:6 0.000236868
10 *3212:C *212:14 0.000116963
11 *3212:C *408:31 1.5015e-05
12 *179:8 *197:10 5.18893e-06
13 *179:8 *212:14 0.000148714
*RES
1 *3184:ZN *179:8 10.444 
2 *179:8 *3202:B 9.228 
3 *179:8 *3212:C 10.52 
*END

*D_NET *180 0.000198269
*CONN
*I *3203:B I *D gf180mcu_fd_sc_mcu7t5v0__oai21_1
*I *3185:Z O *D gf180mcu_fd_sc_mcu7t5v0__or2_1
*CAP
1 *3203:B 8.80017e-05
2 *3185:Z 8.80017e-05
3 *3186:A1 *3203:B 0
4 *178:25 *3203:B 2.22657e-05
*RES
1 *3185:Z *3203:B 9.608 
*END

*D_NET *181 0.000446176
*CONN
*I *3203:A2 I *D gf180mcu_fd_sc_mcu7t5v0__oai21_1
*I *3186:Z O *D gf180mcu_fd_sc_mcu7t5v0__and2_1
*CAP
1 *3203:A2 0.000143553
2 *3186:Z 0.000143553
3 *3203:A2 *3230:A1 0.00015907
*RES
1 *3186:Z *3203:A2 10.064 
*END

*D_NET *182 0.00131344
*CONN
*I *3212:A2 I *D gf180mcu_fd_sc_mcu7t5v0__aoi211_1
*I *3202:A2 I *D gf180mcu_fd_sc_mcu7t5v0__aoi21_1
*I *3187:ZN O *D gf180mcu_fd_sc_mcu7t5v0__nand2_1
*CAP
1 *3212:A2 0.000226535
2 *3202:A2 0
3 *3187:ZN 0.000116853
4 *182:8 0.000343388
5 *3212:A2 *3202:A1 0.000288822
6 *3212:A2 *3230:A2 4.27813e-05
7 *182:8 *197:10 3.05986e-05
8 *3187:A1 *182:8 6.97081e-05
9 *175:42 *3212:A2 4.56845e-05
10 *175:42 *182:8 0.000149068
*RES
1 *3187:ZN *182:8 5.564 
2 *182:8 *3202:A2 4.5 
3 *182:8 *3212:A2 6.324 
*END

*D_NET *183 0.000986233
*CONN
*I *3190:A2 I *D gf180mcu_fd_sc_mcu7t5v0__nand3_1
*I *3188:Z O *D gf180mcu_fd_sc_mcu7t5v0__xor2_1
*CAP
1 *3190:A2 0.000281934
2 *3188:Z 0.000281934
3 *3190:A2 *3190:A3 6.68351e-05
4 *3190:A2 *3532:I 0
5 *3190:A2 *324:8 0.000355531
*RES
1 *3188:Z *3190:A2 11.508 
*END

*D_NET *184 0.000289521
*CONN
*I *3190:A3 I *D gf180mcu_fd_sc_mcu7t5v0__nand3_1
*I *3189:Z O *D gf180mcu_fd_sc_mcu7t5v0__xor3_1
*CAP
1 *3190:A3 0.000111343
2 *3189:Z 0.000111343
3 *3190:A2 *3190:A3 6.68351e-05
*RES
1 *3189:Z *3190:A3 9.988 
*END

*D_NET *185 0.00400131
*CONN
*I *3201:A1 I *D gf180mcu_fd_sc_mcu7t5v0__nand2_1
*I *3232:A1 I *D gf180mcu_fd_sc_mcu7t5v0__nor2_1
*I *3235:A1 I *D gf180mcu_fd_sc_mcu7t5v0__nor4_1
*I *3190:ZN O *D gf180mcu_fd_sc_mcu7t5v0__nand3_1
*CAP
1 *3201:A1 3.01169e-06
2 *3232:A1 0.000135936
3 *3235:A1 0
4 *3190:ZN 0.000337089
5 *185:23 0.000252585
6 *185:14 0.000450726
7 *3201:A1 *3238:A1 8.69929e-05
8 *3232:A1 *3233:A2 4.50449e-05
9 *3232:A1 *3235:A2 7.98466e-05
10 *3232:A1 *3235:A4 2.11395e-05
11 *3232:A1 *3238:A1 0.000209274
12 *185:14 *3236:B 2.67896e-05
13 *185:14 *3238:A2 9.17202e-06
14 *185:14 *3247:A1 0.000246194
15 *185:14 *3247:A2 6.68223e-05
16 *185:14 *3247:B 0.000190489
17 *185:14 *3517:D 0.0012139
18 *185:14 *3517:CLK 0
19 *185:14 *324:8 0.000179609
20 *185:14 *324:56 0.000171918
21 *185:23 *3235:A2 2.01461e-05
22 *185:23 *3238:A1 4.20018e-05
23 *185:23 *3238:A2 2.74753e-05
24 *185:23 *3247:A1 9.96276e-05
25 *185:23 *3247:A2 8.55242e-05
*RES
1 *3190:ZN *185:14 18.136 
2 *185:14 *3235:A1 4.5 
3 *185:14 *185:23 1.216 
4 *185:23 *3232:A1 6.096 
5 *185:23 *3201:A1 4.728 
*END

*D_NET *186 0.000173904
*CONN
*I *3193:B I *D gf180mcu_fd_sc_mcu7t5v0__aoi21_1
*I *3191:Z O *D gf180mcu_fd_sc_mcu7t5v0__and2_1
*CAP
1 *3193:B 8.69519e-05
2 *3191:Z 8.69519e-05
*RES
1 *3191:Z *3193:B 9.532 
*END

*D_NET *187 0.00134545
*CONN
*I *3205:A2 I *D gf180mcu_fd_sc_mcu7t5v0__xor2_1
*I *3193:A2 I *D gf180mcu_fd_sc_mcu7t5v0__aoi21_1
*I *3192:Z O *D gf180mcu_fd_sc_mcu7t5v0__xor2_1
*CAP
1 *3205:A2 0.000220152
2 *3193:A2 0.000125678
3 *3192:Z 0
4 *187:4 0.000345831
5 *3193:A2 *3193:A1 0.000146053
6 *3193:A2 *323:102 9.026e-05
7 *3205:A2 *3193:A1 7.4219e-06
8 *3205:A2 *3496:RN 0.000186796
9 *3205:A2 *405:23 0.000223261
10 *3491:D *3193:A2 0
11 *3491:D *3205:A2 0
*RES
1 *3192:Z *187:4 4.5 
2 *187:4 *3193:A2 5.792 
3 *187:4 *3205:A2 6.4 
*END

*D_NET *188 0.00200788
*CONN
*I *3199:A1 I *D gf180mcu_fd_sc_mcu7t5v0__oai211_1
*I *3198:A2 I *D gf180mcu_fd_sc_mcu7t5v0__xnor3_1
*I *3193:ZN O *D gf180mcu_fd_sc_mcu7t5v0__aoi21_1
*CAP
1 *3199:A1 7.59509e-06
2 *3198:A2 9.42435e-05
3 *3193:ZN 0.000327268
4 *188:8 0.000429107
5 *3198:A2 *3199:B 0.000448201
6 *3198:A2 *3199:C 2.68222e-05
7 *3198:A2 *397:23 0
8 *3198:A2 *406:27 0.000317494
9 *3198:A2 *406:31 9.26705e-05
10 *3199:A1 *3199:B 3.08902e-05
11 *3199:A1 *323:102 5.1289e-05
12 *188:8 *323:102 0.000182296
*RES
1 *3193:ZN *188:8 6.78 
2 *188:8 *3198:A2 6.324 
3 *188:8 *3199:A1 4.88 
*END

*D_NET *189 0.00127446
*CONN
*I *3199:C I *D gf180mcu_fd_sc_mcu7t5v0__oai211_1
*I *3194:ZN O *D gf180mcu_fd_sc_mcu7t5v0__nand2_1
*CAP
1 *3199:C 0.000382217
2 *3194:ZN 0.000382217
3 *3199:C *3195:A2 0.000149579
4 *3199:C *397:23 5.84362e-05
5 *3199:C *406:27 7.70742e-05
6 *3199:C *406:31 0.000166569
7 *3199:C *406:37 3.15412e-05
8 *3198:A2 *3199:C 2.68222e-05
*RES
1 *3194:ZN *3199:C 12.42 
*END

*D_NET *190 0.00163419
*CONN
*I *3198:A3 I *D gf180mcu_fd_sc_mcu7t5v0__xnor3_1
*I *3196:A2 I *D gf180mcu_fd_sc_mcu7t5v0__nand2_1
*I *3197:A2 I *D gf180mcu_fd_sc_mcu7t5v0__nor2_1
*I *3195:Z O *D gf180mcu_fd_sc_mcu7t5v0__xor2_1
*CAP
1 *3198:A3 0.000171485
2 *3196:A2 2.3925e-05
3 *3197:A2 0
4 *3195:Z 8.6159e-05
5 *190:19 0.000511596
6 *190:8 0.000402345
7 *3196:A2 *323:102 8.55242e-05
8 *3198:A3 *3317:I1 0
9 *3198:A3 *193:10 0
10 *3198:A3 *323:102 0.000353157
*RES
1 *3195:Z *190:8 9.532 
2 *190:8 *3197:A2 9 
3 *190:8 *190:19 5.792 
4 *190:19 *3196:A2 4.728 
5 *190:19 *3198:A3 6.02 
*END

*D_NET *191 0.00143112
*CONN
*I *3199:B I *D gf180mcu_fd_sc_mcu7t5v0__oai211_1
*I *3196:ZN O *D gf180mcu_fd_sc_mcu7t5v0__nand2_1
*CAP
1 *3199:B 0.000180711
2 *3196:ZN 0.000180711
3 *3199:B *3199:A2 0.000269156
4 *3199:B *323:102 2.40922e-05
5 *3199:B *406:31 0.000297362
6 *3198:A2 *3199:B 0.000448201
7 *3199:A1 *3199:B 3.08902e-05
*RES
1 *3196:ZN *3199:B 11.888 
*END

*D_NET *192 0.00114496
*CONN
*I *3199:A2 I *D gf180mcu_fd_sc_mcu7t5v0__oai211_1
*I *3197:ZN O *D gf180mcu_fd_sc_mcu7t5v0__nor2_1
*CAP
1 *3199:A2 0.000124774
2 *3197:ZN 0.000124774
3 *3199:A2 *323:102 0.000626259
4 *3199:B *3199:A2 0.000269156
*RES
1 *3197:ZN *3199:A2 11.128 
*END

*D_NET *193 0.00237052
*CONN
*I *3216:A2 I *D gf180mcu_fd_sc_mcu7t5v0__xor2_1
*I *3217:A2 I *D gf180mcu_fd_sc_mcu7t5v0__xnor2_1
*I *3200:A2 I *D gf180mcu_fd_sc_mcu7t5v0__aoi21_1
*I *3198:ZN O *D gf180mcu_fd_sc_mcu7t5v0__xnor3_1
*CAP
1 *3216:A2 4.19803e-05
2 *3217:A2 0.000139199
3 *3200:A2 7.87334e-05
4 *3198:ZN 0.000178842
5 *193:10 0.000354793
6 *3200:A2 *3200:B 4.28586e-06
7 *3200:A2 *3217:A1 1.8655e-05
8 *3200:A2 *195:14 3.73535e-05
9 *3200:A2 *410:28 2.9378e-06
10 *3216:A2 *3217:A1 7.26603e-05
11 *3216:A2 *343:457 0.000132619
12 *3216:A2 *396:23 0.000299171
13 *3217:A2 *3200:B 0
14 *3217:A2 *3217:A1 0.00018927
15 *3217:A2 *3317:I1 7.00332e-05
16 *3217:A2 *195:14 0.000251816
17 *193:10 *3200:B 0.00018927
18 *193:10 *3317:I1 0.0001266
19 *193:10 *195:14 0.000145096
20 *193:10 *410:28 3.71997e-05
21 *3198:A3 *193:10 0
*RES
1 *3198:ZN *193:10 10.672 
2 *193:10 *3200:A2 9.532 
3 *193:10 *3217:A2 10.216 
4 *3217:A2 *3216:A2 9.836 
*END

*D_NET *194 0.0015465
*CONN
*I *3200:B I *D gf180mcu_fd_sc_mcu7t5v0__aoi21_1
*I *3199:ZN O *D gf180mcu_fd_sc_mcu7t5v0__oai211_1
*CAP
1 *3200:B 0.000604377
2 *3199:ZN 0.000604377
3 *3200:B *3317:I1 0.000107446
4 *3200:B *195:14 2.17248e-05
5 *3200:B *410:28 1.5015e-05
6 *3200:A2 *3200:B 4.28586e-06
7 *3217:A2 *3200:B 0
8 *193:10 *3200:B 0.00018927
*RES
1 *3199:ZN *3200:B 22.104 
*END

*D_NET *195 0.00922109
*CONN
*I *3236:C I *D gf180mcu_fd_sc_mcu7t5v0__oai211_1
*I *3201:A2 I *D gf180mcu_fd_sc_mcu7t5v0__nand2_1
*I *3234:A2 I *D gf180mcu_fd_sc_mcu7t5v0__and2_1
*I *3200:ZN O *D gf180mcu_fd_sc_mcu7t5v0__aoi21_1
*CAP
1 *3236:C 0
2 *3201:A2 0.000164698
3 *3234:A2 0.00038386
4 *3200:ZN 0.00101612
5 *195:20 0.000675651
6 *195:14 0.00114322
7 *3234:A2 *3236:B 0.000179609
8 *3234:A2 *3238:A2 7.53241e-05
9 *3234:A2 *374:90 1.5015e-05
10 *195:14 *3230:B2 0.000399191
11 *195:14 *3235:A3 1.97166e-05
12 *195:14 *3236:A1 1.76898e-05
13 *195:14 *3236:B 0.000237568
14 *195:14 *3317:I1 1.47675e-05
15 *195:14 *3517:D 4.84311e-05
16 *195:14 *3517:CLK 1.50723e-05
17 *195:14 *211:8 0.00158557
18 *195:14 *213:8 0.000437601
19 *195:14 *324:56 0
20 *195:14 *343:457 0.00115004
21 *195:14 *410:22 0.000117421
22 *195:14 *410:28 0.000222721
23 *195:20 *3235:A2 7.5983e-05
24 *195:20 *3235:A3 0.000451288
25 *195:20 *3247:A2 0.000109831
26 *195:20 *207:8 5.07443e-05
27 *3200:A2 *195:14 3.73535e-05
28 *3200:B *195:14 2.17248e-05
29 *3217:A2 *195:14 0.000251816
30 *3514:D *3234:A2 2.30549e-05
31 *129:8 *195:14 0
32 *178:10 *195:14 2.67803e-05
33 *178:25 *195:14 0.000108139
34 *193:10 *195:14 0.000145096
*RES
1 *3200:ZN *195:14 26.496 
2 *195:14 *195:20 10.748 
3 *195:20 *3234:A2 15.932 
4 *195:20 *3201:A2 14.336 
5 *195:14 *3236:C 4.5 
*END

*D_NET *196 0.0021243
*CONN
*I *3220:A2 I *D gf180mcu_fd_sc_mcu7t5v0__nor4_1
*I *3237:A1 I *D gf180mcu_fd_sc_mcu7t5v0__oai31_1
*I *3201:ZN O *D gf180mcu_fd_sc_mcu7t5v0__nand2_1
*CAP
1 *3220:A2 0
2 *3237:A1 0.000145994
3 *3201:ZN 0.000323642
4 *196:12 0.000469636
5 *3237:A1 *3220:A3 0.000428087
6 *3237:A1 *230:8 2.04755e-05
7 *3237:A1 *324:122 1.39267e-05
8 *196:12 *3220:A4 0.000230607
9 *196:12 *3233:B 4.58601e-06
10 *196:12 *3238:A1 0.000166073
11 *196:12 *214:21 0.000143199
12 *196:12 *230:8 5.76098e-05
13 *3220:A1 *3237:A1 0.000120462
*RES
1 *3201:ZN *196:12 15.932 
2 *196:12 *3237:A1 6.172 
3 *196:12 *3220:A2 4.5 
*END

*D_NET *197 0.00177789
*CONN
*I *3213:A1 I *D gf180mcu_fd_sc_mcu7t5v0__nand2_1
*I *3231:A1 I *D gf180mcu_fd_sc_mcu7t5v0__oai22_1
*I *3202:ZN O *D gf180mcu_fd_sc_mcu7t5v0__aoi21_1
*CAP
1 *3213:A1 0.000167448
2 *3231:A1 0
3 *3202:ZN 0.000427388
4 *197:10 0.000594836
5 *3213:A1 *3219:A2 5.64581e-06
6 *3213:A1 *224:8 0.000498672
7 *197:10 *3219:A2 1.4866e-05
8 *197:10 *205:6 2.60941e-05
9 *197:10 *212:14 0
10 *3212:C *197:10 7.14955e-06
11 *179:8 *197:10 5.18893e-06
12 *182:8 *197:10 3.05986e-05
*RES
1 *3202:ZN *197:10 11.28 
2 *197:10 *3231:A1 9 
3 *197:10 *3213:A1 10.444 
*END

*D_NET *198 0.00160118
*CONN
*I *3230:A1 I *D gf180mcu_fd_sc_mcu7t5v0__aoi22_1
*I *3203:ZN O *D gf180mcu_fd_sc_mcu7t5v0__oai21_1
*CAP
1 *3230:A1 0.000441317
2 *3203:ZN 0.000441317
3 *3230:A1 *3230:B1 9.41821e-06
4 *3230:A1 *3230:B2 0.000219667
5 *3186:A1 *3230:A1 1.02578e-05
6 *3186:A2 *3230:A1 8.55327e-05
7 *3203:A2 *3230:A1 0.00015907
8 *175:27 *3230:A1 0
9 *175:42 *3230:A1 0.000224422
10 *178:25 *3230:A1 1.0183e-05
*RES
1 *3203:ZN *3230:A1 12.268 
*END

*D_NET *199 0.00465675
*CONN
*I *3207:A1 I *D gf180mcu_fd_sc_mcu7t5v0__nand2_1
*I *3209:A1 I *D gf180mcu_fd_sc_mcu7t5v0__xor2_1
*I *3206:A1 I *D gf180mcu_fd_sc_mcu7t5v0__and2_1
*I *3210:A2 I *D gf180mcu_fd_sc_mcu7t5v0__xor3_1
*I *3208:A1 I *D gf180mcu_fd_sc_mcu7t5v0__nor2_1
*I *3204:ZN O *D gf180mcu_fd_sc_mcu7t5v0__oai21_1
*CAP
1 *3207:A1 2.85809e-05
2 *3209:A1 0.000146792
3 *3206:A1 0.000142913
4 *3210:A2 0.000172502
5 *3208:A1 0
6 *3204:ZN 0.000336123
7 *199:41 0.000391227
8 *199:37 0.000158683
9 *199:10 0.000480045
10 *3206:A1 *3123:I 5.14116e-06
11 *3206:A1 *3206:A2 0.000123275
12 *3206:A1 *3209:A2 0.00013063
13 *3206:A1 *3215:B 6.17036e-05
14 *3207:A1 *3207:A2 0.00017019
15 *3207:A1 *3215:B 8.18373e-05
16 *3209:A1 *3209:A2 0.000141897
17 *3209:A1 *3214:B 3.15156e-05
18 *3209:A1 *409:12 0.000179145
19 *3210:A2 *3207:A2 5.87561e-06
20 *3210:A2 *3215:B 0
21 *3210:A2 *3500:RN 2.74753e-05
22 *3210:A2 *336:19 0.000399191
23 *3210:A2 *409:8 9.88736e-06
24 *199:10 *3215:A2 3.11143e-05
25 *199:10 *3500:RN 0.000709399
26 *199:10 *210:6 0
27 *199:37 *3207:A2 0.000137785
28 *199:37 *3215:B 4.94368e-05
29 *199:41 *409:12 0.000453575
30 *3204:A1 *199:10 5.76373e-06
31 *3204:A2 *199:10 4.50449e-05
*RES
1 *3204:ZN *199:10 7.616 
2 *199:10 *3208:A1 4.5 
3 *199:10 *3210:A2 15.096 
4 *3210:A2 *199:37 4.88 
5 *199:37 *199:41 5.64 
6 *199:41 *3206:A1 10.292 
7 *199:41 *3209:A1 10.368 
8 *199:37 *3207:A1 5.032 
*END

*D_NET *200 0.00140831
*CONN
*I *4073:I I *D gf180mcu_fd_sc_mcu7t5v0__clkbuf_2
*I *3205:Z O *D gf180mcu_fd_sc_mcu7t5v0__xor2_1
*CAP
1 *4073:I 0.000408319
2 *3205:Z 0.000408319
3 *4073:I *3328:A1 0.000276717
4 *4073:I *3329:A2 0
5 *3:18 *4073:I 0.000314953
*RES
1 *3205:Z *4073:I 21.724 
*END

*D_NET *201 0.00109391
*CONN
*I *3214:B I *D gf180mcu_fd_sc_mcu7t5v0__aoi21_1
*I *3206:Z O *D gf180mcu_fd_sc_mcu7t5v0__and2_1
*CAP
1 *3214:B 0.000281423
2 *3206:Z 0.000281423
3 *3214:B *3123:I 0.000396652
4 *3214:B *3206:A2 8.91093e-05
5 *3214:B *3209:A2 8.81341e-06
6 *3214:B *204:12 0
7 *3214:B *209:6 4.97712e-06
8 *3209:A1 *3214:B 3.15156e-05
*RES
1 *3206:Z *3214:B 11.584 
*END

*D_NET *202 0.00080379
*CONN
*I *3215:B I *D gf180mcu_fd_sc_mcu7t5v0__oai21_1
*I *3207:ZN O *D gf180mcu_fd_sc_mcu7t5v0__nand2_1
*CAP
1 *3215:B 0.000298134
2 *3207:ZN 0.000298134
3 *3215:B *3209:A2 9.56768e-06
4 *3215:B *3215:A2 4.97712e-06
5 *3206:A1 *3215:B 6.17036e-05
6 *3207:A1 *3215:B 8.18373e-05
7 *3210:A2 *3215:B 0
8 *199:37 *3215:B 4.94368e-05
*RES
1 *3207:ZN *3215:B 10.9 
*END

*D_NET *203 0.000664715
*CONN
*I *3215:A2 I *D gf180mcu_fd_sc_mcu7t5v0__oai21_1
*I *3208:ZN O *D gf180mcu_fd_sc_mcu7t5v0__nor2_1
*CAP
1 *3215:A2 0.000314312
2 *3208:ZN 0.000314312
3 *3215:A2 *409:8 0
4 *3215:B *3215:A2 4.97712e-06
5 *199:10 *3215:A2 3.11143e-05
*RES
1 *3208:ZN *3215:A2 11.128 
*END

*D_NET *204 0.00114787
*CONN
*I *3214:A2 I *D gf180mcu_fd_sc_mcu7t5v0__aoi21_1
*I *3211:A2 I *D gf180mcu_fd_sc_mcu7t5v0__xor2_1
*I *3209:Z O *D gf180mcu_fd_sc_mcu7t5v0__xor2_1
*CAP
1 *3214:A2 0
2 *3211:A2 9.99581e-05
3 *3209:Z 0.000275001
4 *204:12 0.000374959
5 *3211:A2 *3517:CLK 9.09716e-05
6 *3211:A2 *209:6 0.000230943
7 *204:12 *3214:A1 4.60055e-05
8 *204:12 *209:6 3.00299e-05
9 *3214:B *204:12 0
10 *3:18 *204:12 0
*RES
1 *3209:Z *204:12 15.324 
2 *204:12 *3211:A2 5.792 
3 *204:12 *3214:A2 4.5 
*END

*D_NET *205 0.00373805
*CONN
*I *3212:B I *D gf180mcu_fd_sc_mcu7t5v0__aoi211_1
*I *3230:A2 I *D gf180mcu_fd_sc_mcu7t5v0__aoi22_1
*I *3210:Z O *D gf180mcu_fd_sc_mcu7t5v0__xor3_1
*CAP
1 *3212:B 0
2 *3230:A2 0.0002393
3 *3210:Z 0.000567689
4 *205:6 0.000806989
5 *3230:A2 *3236:A2 0
6 *3230:A2 *212:14 0.000444428
7 *3230:A2 *408:31 2.83071e-05
8 *205:6 *3123:I 0.000723683
9 *205:6 *3202:A1 4.34503e-05
10 *205:6 *3231:B2 0.000118722
11 *205:6 *209:6 8.22473e-05
12 *3202:B *205:6 3.5555e-05
13 *3212:A2 *3230:A2 4.27813e-05
14 *3212:C *205:6 0.000236868
15 *175:42 *3230:A2 0.000341937
16 *197:10 *205:6 2.60941e-05
*RES
1 *3210:Z *205:6 9.44 
2 *205:6 *3230:A2 16.084 
3 *205:6 *3212:B 4.5 
*END

*D_NET *206 0.00140341
*CONN
*I *3213:A2 I *D gf180mcu_fd_sc_mcu7t5v0__nand2_1
*I *3231:A2 I *D gf180mcu_fd_sc_mcu7t5v0__oai22_1
*I *3211:Z O *D gf180mcu_fd_sc_mcu7t5v0__xor2_1
*CAP
1 *3213:A2 7.61808e-05
2 *3231:A2 3.76103e-05
3 *3211:Z 0.000150395
4 *206:6 0.000264186
5 *3213:A2 *224:8 0.000319962
6 *3231:A2 *3219:A1 9.57502e-06
7 *206:6 *3219:A1 7.24161e-06
8 *206:6 *3517:CLK 0.000366552
9 *206:6 *209:6 0.000171706
*RES
1 *3211:Z *206:6 6.552 
2 *206:6 *3231:A2 4.728 
3 *206:6 *3213:A2 14.336 
*END

*D_NET *207 0.00178633
*CONN
*I *3235:A2 I *D gf180mcu_fd_sc_mcu7t5v0__nor4_1
*I *3232:A2 I *D gf180mcu_fd_sc_mcu7t5v0__nor2_1
*I *3212:ZN O *D gf180mcu_fd_sc_mcu7t5v0__aoi211_1
*CAP
1 *3235:A2 0.000250645
2 *3232:A2 2.39161e-05
3 *3212:ZN 0.000292407
4 *207:8 0.000566968
5 *3232:A2 *3517:D 8.55327e-05
6 *3232:A2 *3517:CLK 0
7 *3235:A2 *3235:A4 4.62379e-05
8 *3235:A2 *3247:A1 0.000144931
9 *3235:A2 *214:8 0
10 *207:8 *3219:A2 0
11 *207:8 *3235:A3 2.58211e-05
12 *207:8 *3236:A2 0.000111728
13 *207:8 *212:14 6.57222e-06
14 *207:8 *213:8 4.85279e-06
15 *207:8 *214:8 0
16 *3232:A1 *3235:A2 7.98466e-05
17 *185:23 *3235:A2 2.01461e-05
18 *195:20 *3235:A2 7.5983e-05
19 *195:20 *207:8 5.07443e-05
*RES
1 *3212:ZN *207:8 11.508 
2 *207:8 *3232:A2 9.228 
3 *207:8 *3235:A2 10.824 
*END

*D_NET *208 0.00202635
*CONN
*I *3220:A3 I *D gf180mcu_fd_sc_mcu7t5v0__nor4_1
*I *3237:A2 I *D gf180mcu_fd_sc_mcu7t5v0__oai31_1
*I *3213:ZN O *D gf180mcu_fd_sc_mcu7t5v0__nand2_1
*CAP
1 *3220:A3 0.000156302
2 *3237:A2 0
3 *3213:ZN 0.000331198
4 *208:8 0.0004875
5 *3220:A3 *3237:A3 5.08937e-06
6 *3220:A3 *230:8 0.000166377
7 *208:8 *3233:A1 0.000256606
8 *208:8 *224:8 0.000195189
9 *3237:A1 *3220:A3 0.000428087
*RES
1 *3213:ZN *208:8 11.508 
2 *208:8 *3237:A2 9 
3 *208:8 *3220:A3 10.672 
*END

*D_NET *209 0.00200249
*CONN
*I *3231:B1 I *D gf180mcu_fd_sc_mcu7t5v0__oai22_1
*I *3219:A1 I *D gf180mcu_fd_sc_mcu7t5v0__nand2_1
*I *3214:ZN O *D gf180mcu_fd_sc_mcu7t5v0__aoi21_1
*CAP
1 *3231:B1 0
2 *3219:A1 0.000279564
3 *3214:ZN 0.000399137
4 *209:6 0.000678701
5 *3219:A1 *3231:B2 6.07711e-05
6 *3219:A1 *3517:CLK 4.50299e-05
7 *209:6 *3123:I 0
8 *209:6 *3517:CLK 2.57058e-06
9 *3211:A2 *209:6 0.000230943
10 *3214:B *209:6 4.97712e-06
11 *3231:A2 *3219:A1 9.57502e-06
12 *204:12 *209:6 3.00299e-05
13 *205:6 *209:6 8.22473e-05
14 *206:6 *3219:A1 7.24161e-06
15 *206:6 *209:6 0.000171706
*RES
1 *3214:ZN *209:6 8.072 
2 *209:6 *3219:A1 6.096 
3 *209:6 *3231:B1 4.5 
*END

*D_NET *210 0.00206133
*CONN
*I *3230:B1 I *D gf180mcu_fd_sc_mcu7t5v0__aoi22_1
*I *3218:A1 I *D gf180mcu_fd_sc_mcu7t5v0__nor2_1
*I *3215:ZN O *D gf180mcu_fd_sc_mcu7t5v0__oai21_1
*CAP
1 *3230:B1 0.000146915
2 *3218:A1 0
3 *3215:ZN 0.000836058
4 *210:6 0.000982973
5 *3187:A2 *3230:B1 0
6 *3187:A2 *210:6 6.87573e-05
7 *3230:A1 *3230:B1 9.41821e-06
8 *127:22 *210:6 0
9 *175:42 *210:6 0
10 *178:53 *210:6 1.72091e-05
11 *199:10 *210:6 0
*RES
1 *3215:ZN *210:6 9.288 
2 *210:6 *3218:A1 4.5 
3 *210:6 *3230:B1 5.488 
*END

*D_NET *211 0.00355527
*CONN
*I *3230:B2 I *D gf180mcu_fd_sc_mcu7t5v0__aoi22_1
*I *3218:A2 I *D gf180mcu_fd_sc_mcu7t5v0__nor2_1
*I *3216:Z O *D gf180mcu_fd_sc_mcu7t5v0__xor2_1
*CAP
1 *3230:B2 0.00010103
2 *3218:A2 0.000104189
3 *3216:Z 0.000268366
4 *211:8 0.000473585
5 *3230:A1 *3230:B2 0.000219667
6 *3327:A1 *211:8 0
7 *178:10 *3218:A2 1.18037e-05
8 *178:10 *3230:B2 0.000191531
9 *178:10 *211:8 0.000200343
10 *195:14 *3230:B2 0.000399191
11 *195:14 *211:8 0.00158557
*RES
1 *3216:Z *211:8 12.876 
2 *211:8 *3218:A2 9.684 
3 *211:8 *3230:B2 10.976 
*END

*D_NET *212 0.0052558
*CONN
*I *3231:B2 I *D gf180mcu_fd_sc_mcu7t5v0__oai22_1
*I *3219:A2 I *D gf180mcu_fd_sc_mcu7t5v0__nand2_1
*I *3217:ZN O *D gf180mcu_fd_sc_mcu7t5v0__xnor2_1
*CAP
1 *3231:B2 0.000151356
2 *3219:A2 0.0001747
3 *3217:ZN 0.00115345
4 *212:14 0.00147951
5 *3219:A2 *3517:CLK 2.01323e-05
6 *212:14 *3183:A1 4.04687e-05
7 *212:14 *3236:A2 0
8 *212:14 *3517:CLK 0
9 *212:14 *3554:I 0.000245109
10 *212:14 *390:96 0.000387763
11 *3212:C *212:14 0.000116963
12 *3213:A1 *3219:A2 5.64581e-06
13 *3219:A1 *3231:B2 6.07711e-05
14 *3230:A2 *212:14 0.000444428
15 *178:53 *212:14 0.000686632
16 *179:8 *212:14 0.000148714
17 *197:10 *3219:A2 1.4866e-05
18 *197:10 *212:14 0
19 *205:6 *3231:B2 0.000118722
20 *207:8 *3219:A2 0
21 *207:8 *212:14 6.57222e-06
*RES
1 *3217:ZN *212:14 23.304 
2 *212:14 *3219:A2 14.716 
3 *212:14 *3231:B2 5.792 
*END

*D_NET *213 0.00377375
*CONN
*I *3235:A3 I *D gf180mcu_fd_sc_mcu7t5v0__nor4_1
*I *3236:A1 I *D gf180mcu_fd_sc_mcu7t5v0__oai211_1
*I *3218:ZN O *D gf180mcu_fd_sc_mcu7t5v0__nor2_1
*CAP
1 *3235:A3 0.00012286
2 *3236:A1 2.16333e-05
3 *3218:ZN 0.000319304
4 *213:8 0.000463798
5 *3235:A3 *3236:B 4.2784e-05
6 *3235:A3 *3247:A2 0.000340241
7 *3236:A1 *3236:B 2.96621e-05
8 *3236:A1 *3517:CLK 0.000147313
9 *213:8 *3236:A2 0.00132918
10 *213:8 *3554:I 0
11 *195:14 *3235:A3 1.97166e-05
12 *195:14 *3236:A1 1.76898e-05
13 *195:14 *213:8 0.000437601
14 *195:20 *3235:A3 0.000451288
15 *207:8 *3235:A3 2.58211e-05
16 *207:8 *213:8 4.85279e-06
*RES
1 *3218:ZN *213:8 13.484 
2 *213:8 *3236:A1 9.38 
3 *213:8 *3235:A3 10.824 
*END

*D_NET *214 0.00242293
*CONN
*I *3220:A4 I *D gf180mcu_fd_sc_mcu7t5v0__nor4_1
*I *3237:A3 I *D gf180mcu_fd_sc_mcu7t5v0__oai31_1
*I *3233:B I *D gf180mcu_fd_sc_mcu7t5v0__oai21_1
*I *3219:ZN O *D gf180mcu_fd_sc_mcu7t5v0__nand2_1
*CAP
1 *3220:A4 7.06968e-05
2 *3237:A3 0.000179672
3 *3233:B 6.01894e-05
4 *3219:ZN 0.000478271
5 *214:21 0.00040723
6 *214:8 0.000695321
7 *3233:B *3233:A2 1.18988e-05
8 *3233:B *3235:A4 3.77294e-06
9 *3233:B *3238:A1 2.01323e-05
10 *3237:A3 *3233:A1 0
11 *3237:A3 *230:8 0.000112268
12 *3220:A3 *3237:A3 5.08937e-06
13 *3235:A2 *214:8 0
14 *196:12 *3220:A4 0.000230607
15 *196:12 *3233:B 4.58601e-06
16 *196:12 *214:21 0.000143199
17 *207:8 *214:8 0
*RES
1 *3219:ZN *214:8 11.66 
2 *214:8 *3233:B 9.532 
3 *214:8 *214:21 1.064 
4 *214:21 *3237:A3 10.292 
5 *214:21 *3220:A4 9.684 
*END

*D_NET *215 0.000402864
*CONN
*I *3287:A1 I *D gf180mcu_fd_sc_mcu7t5v0__oai31_1
*I *3221:ZN O *D gf180mcu_fd_sc_mcu7t5v0__nor2_1
*CAP
1 *3287:A1 0.000112957
2 *3221:ZN 0.000112957
3 *3287:A1 *3221:A1 0.00012749
4 *3287:A1 *3287:A3 1.91917e-06
5 *3287:A1 *257:10 1.08016e-05
6 *3287:A1 *258:8 3.67395e-05
*RES
1 *3221:ZN *3287:A1 9.836 
*END

*D_NET *216 0.0014813
*CONN
*I *3223:I I *D gf180mcu_fd_sc_mcu7t5v0__clkinv_1
*I *3222:ZN O *D gf180mcu_fd_sc_mcu7t5v0__aoi21_1
*CAP
1 *3223:I 0.000398526
2 *3222:ZN 0.000398526
3 *3223:I *3224:A2 0
4 *3223:I *3227:A1 0.000241984
5 *3223:I *3227:A3 0.000179609
6 *3223:I *3228:A2 0
7 *3223:I *222:12 8.17271e-05
8 *3223:I *411:42 7.54771e-06
9 *3223:I *412:21 0.000173384
*RES
1 *3222:ZN *3223:I 12.724 
*END

*D_NET *217 0.000469808
*CONN
*I *3224:A2 I *D gf180mcu_fd_sc_mcu7t5v0__nand2_1
*I *3223:ZN O *D gf180mcu_fd_sc_mcu7t5v0__clkinv_1
*CAP
1 *3224:A2 0.000167447
2 *3223:ZN 0.000167447
3 *3224:A2 *3224:A1 4.58601e-06
4 *3224:A2 *3227:A3 8.06016e-05
5 *3224:A2 *3243:C 9.88736e-06
6 *3224:A2 *222:12 3.30388e-05
7 *3224:A2 *374:66 6.79912e-06
8 *3223:I *3224:A2 0
*RES
1 *3223:ZN *3224:A2 10.216 
*END

*D_NET *218 0.0019013
*CONN
*I *3243:A2 I *D gf180mcu_fd_sc_mcu7t5v0__aoi211_1
*I *3229:A2 I *D gf180mcu_fd_sc_mcu7t5v0__aoi211_1
*I *3224:ZN O *D gf180mcu_fd_sc_mcu7t5v0__nand2_1
*CAP
1 *3243:A2 3.5261e-05
2 *3229:A2 5.99598e-05
3 *3224:ZN 6.07877e-05
4 *218:8 0.000156009
5 *3229:A2 *3243:C 7.88344e-05
6 *3229:A2 *374:75 0.000310356
7 *3243:A2 *392:50 3.40956e-05
8 *3243:A2 *413:18 0.000181432
9 *218:8 *3244:A2 0.000403764
10 *218:8 *256:21 2.5309e-05
11 *218:8 *392:50 4.06678e-05
12 *218:8 *413:18 0.00051482
*RES
1 *3224:ZN *218:8 10.596 
2 *218:8 *3229:A2 9.836 
3 *218:8 *3243:A2 9.532 
*END

*D_NET *219 0.00544518
*CONN
*I *3288:A2 I *D gf180mcu_fd_sc_mcu7t5v0__aoi21_1
*I *3289:A3 I *D gf180mcu_fd_sc_mcu7t5v0__and3_1
*I *3226:C I *D gf180mcu_fd_sc_mcu7t5v0__aoi211_1
*I *3287:A2 I *D gf180mcu_fd_sc_mcu7t5v0__oai31_1
*I *3225:Z O *D gf180mcu_fd_sc_mcu7t5v0__and2_1
*CAP
1 *3288:A2 0.000149257
2 *3289:A3 0
3 *3226:C 0.000104896
4 *3287:A2 0.000120127
5 *3225:Z 0
6 *219:32 0.000445234
7 *219:17 0.000805639
8 *219:6 0.000524893
9 *3226:C *3222:A1 3.56405e-05
10 *3226:C *3228:B 0.000147305
11 *3226:C *3531:I 1.09109e-05
12 *3226:C *3539:I 7.83779e-05
13 *3226:C *222:12 0
14 *3226:C *322:23 0.000483795
15 *3287:A2 *257:10 9.50253e-05
16 *3287:A2 *411:21 0.000396904
17 *3287:A2 *411:36 0.0003062
18 *3288:A2 *3289:A2 0.000200913
19 *3288:A2 *3290:A3 7.64884e-05
20 *3288:A2 *343:251 0
21 *3288:A2 *374:66 0
22 *219:17 *3222:A1 0.000210233
23 *219:17 *3227:A2 3.19947e-05
24 *219:17 *3539:I 8.15645e-05
25 *219:17 *374:66 6.38438e-05
26 *219:17 *411:36 0.000406043
27 *219:17 *411:42 1.04779e-05
28 *219:17 *412:12 0.000142176
29 *219:17 *412:23 0.000102094
30 *219:32 *3290:A3 5.76373e-06
31 *219:32 *3291:A2 9.42931e-05
32 *219:32 *3539:I 9.96056e-05
33 *219:32 *322:8 0.00021548
34 *219:32 *374:66 0
*RES
1 *3225:Z *219:6 9 
2 *219:6 *3287:A2 10.748 
3 *219:6 *219:17 4.028 
4 *219:17 *3226:C 10.444 
5 *219:17 *219:32 6.932 
6 *219:32 *3289:A3 4.5 
7 *219:32 *3288:A2 6.02 
*END

*D_NET *220 0.000810094
*CONN
*I *3228:B I *D gf180mcu_fd_sc_mcu7t5v0__oai21_1
*I *3226:ZN O *D gf180mcu_fd_sc_mcu7t5v0__aoi211_1
*CAP
1 *3228:B 0.000149337
2 *3226:ZN 0.000149337
3 *3228:B *3222:A1 6.73834e-05
4 *3228:B *3228:A1 7.49908e-05
5 *3228:B *322:23 0.000184378
6 *3228:B *379:44 3.73627e-05
7 *3226:C *3228:B 0.000147305
*RES
1 *3226:ZN *3228:B 10.824 
*END

*D_NET *221 0.00156823
*CONN
*I *3228:A2 I *D gf180mcu_fd_sc_mcu7t5v0__oai21_1
*I *3227:ZN O *D gf180mcu_fd_sc_mcu7t5v0__nor3_1
*CAP
1 *3228:A2 0.000327115
2 *3227:ZN 0.000327115
3 *3228:A2 *3227:A1 7.14226e-05
4 *3228:A2 *3228:A1 2.05156e-05
5 *3228:A2 *222:12 0.000708364
6 *3228:A2 *412:12 0.000113695
7 *3223:I *3228:A2 0
*RES
1 *3227:ZN *3228:A2 12.344 
*END

*D_NET *222 0.00385866
*CONN
*I *3243:B I *D gf180mcu_fd_sc_mcu7t5v0__aoi211_1
*I *3229:B I *D gf180mcu_fd_sc_mcu7t5v0__aoi211_1
*I *3228:ZN O *D gf180mcu_fd_sc_mcu7t5v0__oai21_1
*CAP
1 *3243:B 0
2 *3229:B 0.000200186
3 *3228:ZN 0.000408154
4 *222:12 0.00060834
5 *3229:B *3126:I 0
6 *3229:B *3289:A1 3.56433e-05
7 *3229:B *256:21 0.00032266
8 *3229:B *374:66 3.42838e-05
9 *3229:B *374:75 8.34204e-05
10 *3229:B *374:90 3.73627e-05
11 *3229:B *392:54 5.40519e-05
12 *3229:B *413:18 0.000151728
13 *222:12 *3222:A1 5.87561e-06
14 *222:12 *3226:A2 0.000246194
15 *222:12 *3227:A3 0
16 *222:12 *3228:A1 0.0003847
17 *222:12 *3531:I 0.000374845
18 *222:12 *374:66 7.78312e-05
19 *3223:I *222:12 8.17271e-05
20 *3224:A2 *222:12 3.30388e-05
21 *3226:C *222:12 0
22 *3228:A2 *222:12 0.000708364
23 *3229:C *3229:B 1.02578e-05
*RES
1 *3228:ZN *222:12 9.972 
2 *222:12 *3229:B 15.78 
3 *222:12 *3243:B 4.5 
*END

*D_NET *223 0.00187685
*CONN
*I *3236:A2 I *D gf180mcu_fd_sc_mcu7t5v0__oai211_1
*I *3230:ZN O *D gf180mcu_fd_sc_mcu7t5v0__aoi22_1
*CAP
1 *3236:A2 0.000216484
2 *3230:ZN 0.000216484
3 *3236:A2 *3554:I 2.97354e-06
4 *3230:A2 *3236:A2 0
5 *207:8 *3236:A2 0.000111728
6 *212:14 *3236:A2 0
7 *213:8 *3236:A2 0.00132918
*RES
1 *3230:ZN *3236:A2 21.268 
*END

*D_NET *224 0.00368467
*CONN
*I *3233:A1 I *D gf180mcu_fd_sc_mcu7t5v0__oai21_1
*I *3235:A4 I *D gf180mcu_fd_sc_mcu7t5v0__nor4_1
*I *3231:ZN O *D gf180mcu_fd_sc_mcu7t5v0__oai22_1
*CAP
1 *3233:A1 0.000164481
2 *3235:A4 0.000196826
3 *3231:ZN 0.000150741
4 *224:8 0.000512048
5 *3235:A4 *3233:A2 0.000134498
6 *3235:A4 *3238:A1 2.05156e-05
7 *3235:A4 *3517:D 0.00116399
8 *3213:A1 *224:8 0.000498672
9 *3213:A2 *224:8 0.000319962
10 *3232:A1 *3235:A4 2.11395e-05
11 *3233:B *3235:A4 3.77294e-06
12 *3235:A2 *3235:A4 4.62379e-05
13 *3237:A3 *3233:A1 0
14 *208:8 *3233:A1 0.000256606
15 *208:8 *224:8 0.000195189
*RES
1 *3231:ZN *224:8 11.052 
2 *224:8 *3235:A4 12.116 
3 *224:8 *3233:A1 10.368 
*END

*D_NET *225 0.000575732
*CONN
*I *3233:A2 I *D gf180mcu_fd_sc_mcu7t5v0__oai21_1
*I *3232:ZN O *D gf180mcu_fd_sc_mcu7t5v0__nor2_1
*CAP
1 *3233:A2 6.66312e-05
2 *3232:ZN 6.66312e-05
3 *3233:A2 *3238:A1 0.000251028
4 *3232:A1 *3233:A2 4.50449e-05
5 *3233:B *3233:A2 1.18988e-05
6 *3235:A4 *3233:A2 0.000134498
*RES
1 *3232:ZN *3233:A2 10.064 
*END

*D_NET *226 0.00194177
*CONN
*I *3238:A1 I *D gf180mcu_fd_sc_mcu7t5v0__aoi21_1
*I *3233:ZN O *D gf180mcu_fd_sc_mcu7t5v0__oai21_1
*CAP
1 *3238:A1 0.000422472
2 *3233:ZN 0.000422472
3 *3238:A1 *3238:A2 2.89664e-05
4 *3238:A1 *3247:A3 3.08902e-05
5 *3238:A1 *230:8 0.000240953
6 *3201:A1 *3238:A1 8.69929e-05
7 *3232:A1 *3238:A1 0.000209274
8 *3233:A2 *3238:A1 0.000251028
9 *3233:B *3238:A1 2.01323e-05
10 *3235:A4 *3238:A1 2.05156e-05
11 *185:23 *3238:A1 4.20018e-05
12 *196:12 *3238:A1 0.000166073
*RES
1 *3233:ZN *3238:A1 12.876 
*END

*D_NET *227 0.00102291
*CONN
*I *3238:A2 I *D gf180mcu_fd_sc_mcu7t5v0__aoi21_1
*I *3234:Z O *D gf180mcu_fd_sc_mcu7t5v0__and2_1
*CAP
1 *3238:A2 0.000164621
2 *3234:Z 0.000164621
3 *3238:A2 *3236:B 5.76373e-06
4 *3238:A2 *3247:A1 1.23313e-05
5 *3238:A2 *3247:A2 0.000248576
6 *3238:A2 *3247:A3 0.000167568
7 *3238:A2 *3512:CLK 2.89664e-05
8 *3234:A2 *3238:A2 7.53241e-05
9 *3238:A1 *3238:A2 2.89664e-05
10 *3512:D *3238:A2 0
11 *3514:D *3238:A2 8.95196e-05
12 *185:14 *3238:A2 9.17202e-06
13 *185:23 *3238:A2 2.74753e-05
*RES
1 *3234:Z *3238:A2 11.128 
*END

*D_NET *228 0.000934172
*CONN
*I *3247:A1 I *D gf180mcu_fd_sc_mcu7t5v0__oai31_1
*I *3235:ZN O *D gf180mcu_fd_sc_mcu7t5v0__nor4_1
*CAP
1 *3247:A1 9.24009e-05
2 *3235:ZN 9.24009e-05
3 *3247:A1 *3236:B 0.000239134
4 *3247:A1 *3517:D 7.15189e-06
5 *3235:A2 *3247:A1 0.000144931
6 *3238:A2 *3247:A1 1.23313e-05
7 *185:14 *3247:A1 0.000246194
8 *185:23 *3247:A1 9.96276e-05
*RES
1 *3235:ZN *3247:A1 10.444 
*END

*D_NET *229 0.0014524
*CONN
*I *3247:A2 I *D gf180mcu_fd_sc_mcu7t5v0__oai31_1
*I *3236:ZN O *D gf180mcu_fd_sc_mcu7t5v0__oai211_1
*CAP
1 *3247:A2 0.000180552
2 *3236:ZN 0.000180552
3 *3247:A2 *3236:B 0.000204217
4 *3247:A2 *3247:B 3.60838e-05
5 *3235:A3 *3247:A2 0.000340241
6 *3238:A2 *3247:A2 0.000248576
7 *185:14 *3247:A2 6.68223e-05
8 *185:23 *3247:A2 8.55242e-05
9 *195:20 *3247:A2 0.000109831
*RES
1 *3236:ZN *3247:A2 20.432 
*END

*D_NET *230 0.00218824
*CONN
*I *3238:B I *D gf180mcu_fd_sc_mcu7t5v0__aoi21_1
*I *3247:A3 I *D gf180mcu_fd_sc_mcu7t5v0__oai31_1
*I *3237:ZN O *D gf180mcu_fd_sc_mcu7t5v0__oai31_1
*CAP
1 *3238:B 3.0255e-05
2 *3247:A3 0.000249876
3 *3237:ZN 0.000403273
4 *230:8 0.000683404
5 *3247:A3 *324:122 0
6 *230:8 *324:122 0
7 *3220:A3 *230:8 0.000166377
8 *3237:A1 *230:8 2.04755e-05
9 *3237:A3 *230:8 0.000112268
10 *3238:A1 *3247:A3 3.08902e-05
11 *3238:A1 *230:8 0.000240953
12 *3238:A2 *3247:A3 0.000167568
13 *3512:D *3247:A3 2.529e-05
14 *196:12 *230:8 5.76098e-05
*RES
1 *3237:ZN *230:8 7.844 
2 *230:8 *3247:A3 6.096 
3 *230:8 *3238:B 4.728 
*END

*D_NET *231 0.00445876
*CONN
*I *3333:A2 I *D gf180mcu_fd_sc_mcu7t5v0__nor2_1
*I *3334:A2 I *D gf180mcu_fd_sc_mcu7t5v0__aoi21_1
*I *3332:S I *D gf180mcu_fd_sc_mcu7t5v0__mux2_2
*I *3239:ZN O *D gf180mcu_fd_sc_mcu7t5v0__nand2_1
*CAP
1 *3333:A2 0
2 *3334:A2 0
3 *3332:S 0.000131239
4 *3239:ZN 0.00066826
5 *231:16 0.000486038
6 *231:10 0.00102306
7 *3332:S *3332:I0 3.08902e-05
8 *3332:S *329:27 2.40328e-06
9 *231:10 *3334:B 1.85245e-05
10 *231:10 *3436:D 0.000718863
11 *231:10 *326:114 0.000509034
12 *231:10 *329:10 0
13 *231:10 *329:14 0
14 *231:10 *329:129 5.21053e-05
15 *231:10 *340:27 7.16197e-05
16 *231:10 *949:22 0.00041745
17 *231:16 *3332:I0 8.17271e-05
18 *231:16 *3334:B 8.96783e-05
19 *231:16 *3509:RN 8.95196e-05
20 *231:16 *326:114 3.83192e-05
21 *231:16 *329:14 0
22 *231:16 *329:27 3.00299e-05
23 *231:16 *351:24 0
24 *231:16 *930:10 0
25 *3510:D *3332:S 0
*RES
1 *3239:ZN *231:10 15.688 
2 *231:10 *231:16 7.54 
3 *231:16 *3332:S 5.412 
4 *231:16 *3334:A2 4.5 
5 *231:10 *3333:A2 9 
*END

*D_NET *232 0.00582168
*CONN
*I *3348:S I *D gf180mcu_fd_sc_mcu7t5v0__mux2_2
*I *3569:I I *D gf180mcu_fd_sc_mcu7t5v0__buf_2
*I *3347:S I *D gf180mcu_fd_sc_mcu7t5v0__mux2_2
*I *3240:ZN O *D gf180mcu_fd_sc_mcu7t5v0__nand3_1
*CAP
1 *3348:S 0
2 *3569:I 0
3 *3347:S 0.000319879
4 *3240:ZN 0.00123277
5 *232:12 0.000654435
6 *232:10 0.00156733
7 *3347:S *3347:I1 6.57222e-05
8 *3347:S *326:38 0
9 *3347:S *335:8 8.84331e-05
10 *3347:S *343:29 0
11 *232:10 *3332:I1 0
12 *232:10 *3333:A1 5.34053e-05
13 *232:10 *3545:I 0
14 *232:10 *326:103 0.000156311
15 *232:10 *329:14 0
16 *232:10 *329:27 8.621e-05
17 *232:10 *329:31 5.86602e-05
18 *232:10 *343:12 0.000510027
19 *232:10 *343:23 0
20 *232:10 *351:16 9.45347e-06
21 *232:10 *351:24 1.51256e-05
22 *232:10 *930:10 0
23 *232:10 *935:10 0.000262181
24 *232:10 *935:14 0.000113344
25 *232:10 *949:12 0.000422999
26 *232:12 *3347:I1 6.69567e-05
27 *232:12 *343:23 0
28 *232:12 *935:14 0.000138445
*RES
1 *3240:ZN *232:10 20.248 
2 *232:10 *232:12 2.812 
3 *232:12 *3347:S 11.128 
4 *232:12 *3569:I 9 
5 *232:10 *3348:S 9 
*END

*D_NET *233 0.00394913
*CONN
*I *3244:A1 I *D gf180mcu_fd_sc_mcu7t5v0__or2_1
*I *3278:A1 I *D gf180mcu_fd_sc_mcu7t5v0__nor2_1
*I *3279:A2 I *D gf180mcu_fd_sc_mcu7t5v0__aoi21_1
*I *3242:ZN O *D gf180mcu_fd_sc_mcu7t5v0__nor2_1
*CAP
1 *3244:A1 0
2 *3278:A1 0
3 *3279:A2 0.000287354
4 *3242:ZN 8.23306e-05
5 *233:12 0.000310656
6 *233:6 0.000105633
7 *3279:A2 *3278:A2 3.2657e-05
8 *3279:A2 *3279:B 9.80884e-05
9 *3279:A2 *3295:A2 0.000116796
10 *3279:A2 *3296:A1 0.000279004
11 *3279:A2 *255:14 0.00017961
12 *3279:A2 *266:8 0
13 *3279:A2 *321:89 0
14 *233:6 *3242:A1 0.000725285
15 *233:6 *3242:A2 0.000296236
16 *233:12 *3477:CLK 0.000589761
17 *233:12 *3550:I 0.000698514
18 *233:12 *343:266 5.19228e-05
19 *3477:D *3279:A2 9.52854e-05
*RES
1 *3242:ZN *233:6 6.4 
2 *233:6 *233:12 10.748 
3 *233:12 *3279:A2 16.388 
4 *233:12 *3278:A1 4.5 
5 *233:6 *3244:A1 4.5 
*END

*D_NET *234 0.00287367
*CONN
*I *3244:A2 I *D gf180mcu_fd_sc_mcu7t5v0__or2_1
*I *3243:ZN O *D gf180mcu_fd_sc_mcu7t5v0__aoi211_1
*CAP
1 *3244:A2 0.000573735
2 *3243:ZN 0.000573735
3 *3244:A2 *3242:A1 0.000101127
4 *3244:A2 *3283:A2 0.000193933
5 *3244:A2 *255:10 0.000160944
6 *3244:A2 *256:21 0.000137609
7 *3244:A2 *392:8 0.000323223
8 *3244:A2 *392:25 9.17202e-06
9 *3244:A2 *392:50 8.05328e-05
10 *3515:D *3244:A2 0.000315892
11 *218:8 *3244:A2 0.000403764
*RES
1 *3243:ZN *3244:A2 24.688 
*END

*D_NET *235 0.00107094
*CONN
*I *3245:I I *D gf180mcu_fd_sc_mcu7t5v0__clkinv_1
*I *3244:Z O *D gf180mcu_fd_sc_mcu7t5v0__or2_1
*CAP
1 *3245:I 0.000130818
2 *3244:Z 0.000130818
3 *3245:I *3242:A2 2.08148e-05
4 *3245:I *3280:A1 7.90635e-05
5 *3245:I *3550:I 0.000255722
6 *3245:I *388:10 2.67619e-05
7 *3515:D *3245:I 0.000426942
*RES
1 *3244:Z *3245:I 19.976 
*END

*D_NET *236 0.00245358
*CONN
*I *3247:B I *D gf180mcu_fd_sc_mcu7t5v0__oai31_1
*I *3246:ZN O *D gf180mcu_fd_sc_mcu7t5v0__nor2_1
*CAP
1 *3247:B 0.000812127
2 *3246:ZN 0.000812127
3 *3247:B *3236:B 4.07251e-05
4 *3247:B *3368:A3 4.58601e-06
5 *3247:B *324:122 0.000222721
6 *3247:B *343:699 0.000193942
7 *3247:B *389:15 4.17249e-05
8 *3247:A2 *3247:B 3.60838e-05
9 *3512:D *3247:B 9.90572e-05
10 *185:14 *3247:B 0.000190489
*RES
1 *3246:ZN *3247:B 24.536 
*END

*D_NET *237 0.000330016
*CONN
*I *3249:I I *D gf180mcu_fd_sc_mcu7t5v0__clkinv_1
*I *3248:ZN O *D gf180mcu_fd_sc_mcu7t5v0__oai31_1
*CAP
1 *3249:I 0.000100316
2 *3248:ZN 0.000100316
3 *3249:I *3248:B 7.53241e-05
4 *3249:I *342:106 0
5 *3249:I *945:6 3.87828e-05
6 *3249:I *945:12 1.52768e-05
*RES
1 *3248:ZN *3249:I 9.836 
*END

*D_NET *238 0.0179919
*CONN
*I *3268:B I *D gf180mcu_fd_sc_mcu7t5v0__aoi21_1
*I *3271:A2 I *D gf180mcu_fd_sc_mcu7t5v0__aoi22_1
*I *3269:A2 I *D gf180mcu_fd_sc_mcu7t5v0__aoi22_1
*I *3262:B I *D gf180mcu_fd_sc_mcu7t5v0__aoi21_1
*I *3260:C I *D gf180mcu_fd_sc_mcu7t5v0__aoi221_1
*I *3258:A2 I *D gf180mcu_fd_sc_mcu7t5v0__aoi22_1
*I *3255:A1 I *D gf180mcu_fd_sc_mcu7t5v0__nor2_1
*I *3257:C I *D gf180mcu_fd_sc_mcu7t5v0__aoi221_1
*I *3261:A2 I *D gf180mcu_fd_sc_mcu7t5v0__aoi22_1
*I *3266:A2 I *D gf180mcu_fd_sc_mcu7t5v0__aoi22_1
*I *3264:A2 I *D gf180mcu_fd_sc_mcu7t5v0__aoi22_1
*I *3250:Z O *D gf180mcu_fd_sc_mcu7t5v0__or3_1
*CAP
1 *3268:B 0.000119461
2 *3271:A2 8.59648e-05
3 *3269:A2 2.27528e-05
4 *3262:B 2.80618e-05
5 *3260:C 4.10555e-05
6 *3258:A2 6.85564e-05
7 *3255:A1 0.000248437
8 *3257:C 0
9 *3261:A2 3.02548e-05
10 *3266:A2 0
11 *3264:A2 8.58092e-05
12 *3250:Z 0.000181522
13 *238:122 0.000483952
14 *238:73 0.000545584
15 *238:69 0.000920964
16 *238:54 0.000818702
17 *238:52 0.000514842
18 *238:48 0.000595635
19 *238:46 0.000702208
20 *238:44 0.000480683
21 *238:33 0.000505289
22 *238:10 0.000411398
23 *3255:A1 *3150:A1 0.000168196
24 *3255:A1 *3254:B1 0.000300647
25 *3255:A1 *240:65 0.000173774
26 *3255:A1 *337:29 3.08902e-05
27 *3255:A1 *337:33 4.24811e-05
28 *3258:A2 *3256:A2 6.17803e-05
29 *3258:A2 *3442:CLKN 1.74708e-05
30 *3260:C *3260:B1 5.48978e-05
31 *3260:C *3261:B2 1.64988e-05
32 *3262:B *329:55 0.000241522
33 *3262:B *419:6 0.00018927
34 *3262:B *419:14 5.22519e-05
35 *3264:A2 *3266:B1 1.34641e-06
36 *3264:A2 *341:30 9.62572e-05
37 *3264:A2 *342:53 2.47642e-05
38 *3268:B *3268:A2 1.2339e-05
39 *3268:B *240:83 2.37511e-05
40 *3271:A2 *3271:B1 0.000406051
41 *238:10 *3415:I 3.42838e-05
42 *238:10 *341:20 5.76063e-06
43 *238:10 *341:24 0.00029934
44 *238:10 *341:30 0.000842287
45 *238:10 *342:49 6.68164e-05
46 *238:10 *342:53 0.000600289
47 *238:10 *945:18 0
48 *238:33 *3140:I 8.00051e-06
49 *238:33 *3446:CLKN 8.49277e-05
50 *238:33 *240:83 2.40654e-06
51 *238:44 *3446:CLKN 2.17248e-05
52 *238:44 *240:83 0.000184034
53 *238:48 *3260:A2 8.81805e-05
54 *238:48 *334:14 0.000614962
55 *238:52 *3260:A2 0.000232588
56 *238:52 *3462:SETN 0.000138436
57 *238:54 *3260:B1 0.000446435
58 *238:54 *3261:B2 0.000161437
59 *238:69 *3259:A1 0.000156567
60 *238:69 *3260:B1 0.000441063
61 *238:69 *3261:B1 6.54913e-05
62 *238:69 *3266:B2 0
63 *238:69 *3411:I 8.92063e-06
64 *238:69 *342:57 0.000578344
65 *238:73 *3256:A2 5.27585e-05
66 *238:73 *3259:A1 1.94858e-05
67 *238:73 *3442:CLKN 0.000248536
68 *238:73 *3502:RN 0
69 *238:122 *3271:B1 0.000276662
70 *238:122 *251:8 0.000341606
71 *238:122 *334:14 0.000523979
72 *3258:A1 *238:69 0.000226661
73 *3258:A1 *238:73 8.15645e-05
74 *3261:A1 *3261:A2 5.76373e-06
75 *3261:A1 *238:69 3.87828e-05
76 *3264:A1 *3264:A2 0.000211991
77 *3269:A1 *3269:A2 7.83779e-05
78 *3271:A1 *3271:A2 8.8425e-05
79 *3438:D *238:10 0.00032464
80 *3442:D *3255:A1 0.000441063
81 *3444:D *238:69 1.7295e-05
82 *3445:D *3264:A2 8.09693e-06
83 *3446:D *238:44 0.000431466
84 *3447:D *3271:A2 0.000492181
85 *3447:D *238:122 0.000142809
86 *3448:D *3271:A2 9.88736e-06
87 *144:33 *3264:A2 4.02877e-05
88 *144:33 *3268:B 0
89 *144:33 *238:33 1.952e-06
90 *144:33 *238:44 0
*RES
1 *3250:Z *238:10 13.56 
2 *238:10 *3264:A2 10.216 
3 *238:10 *238:33 5.64 
4 *238:33 *3266:A2 4.5 
5 *238:33 *238:44 3.42 
6 *238:44 *238:46 4.5 
7 *238:46 *238:48 2.508 
8 *238:48 *238:52 6.704 
9 *238:52 *238:54 2.66 
10 *238:54 *3261:A2 4.728 
11 *238:54 *238:69 10.048 
12 *238:69 *238:73 6.552 
13 *238:73 *3257:C 4.5 
14 *238:73 *3255:A1 7.768 
15 *238:69 *3258:A2 9.456 
16 *238:52 *3260:C 4.88 
17 *238:48 *3262:B 9.684 
18 *238:46 *238:122 4.484 
19 *238:122 *3269:A2 9.228 
20 *238:122 *3271:A2 10.672 
21 *238:44 *3268:B 5.184 
*END

*D_NET *239 0.0051836
*CONN
*I *3270:A2 I *D gf180mcu_fd_sc_mcu7t5v0__nand2_1
*I *3267:A2 I *D gf180mcu_fd_sc_mcu7t5v0__nand2_1
*I *3568:I I *D gf180mcu_fd_sc_mcu7t5v0__buf_2
*I *3251:ZN O *D gf180mcu_fd_sc_mcu7t5v0__nor2_1
*CAP
1 *3270:A2 0.00011166
2 *3267:A2 0
3 *3568:I 0
4 *3251:ZN 0.00147239
5 *239:27 0.000385807
6 *239:16 0.00174653
7 *3270:A2 *3271:B1 2.43212e-05
8 *3270:A2 *251:8 5.94709e-06
9 *3270:A2 *329:85 0
10 *239:16 *3141:I 0.000511345
11 *239:16 *3174:A1 5.75752e-06
12 *239:16 *3175:A3 1.52691e-05
13 *239:16 *3176:A2 0
14 *239:16 *3253:A2 0
15 *239:16 *3414:I 0.00032464
16 *239:16 *3415:I 0
17 *239:16 *3438:CLK 8.81221e-06
18 *239:16 *240:83 0.000151125
19 *239:16 *342:49 0
20 *239:16 *945:18 0
21 *239:16 *946:22 5.48313e-05
22 *239:27 *3169:A1 0.000196417
23 *239:27 *3254:A1 1.95906e-05
24 *239:27 *3269:B1 0
25 *239:27 *251:8 4.21654e-05
26 *239:27 *329:72 0
27 *239:27 *329:85 0
28 *3266:A1 *239:16 3.10545e-05
29 *3445:RN *239:16 7.59351e-05
30 *3446:RN *239:16 0
*RES
1 *3251:ZN *239:16 14.684 
2 *239:16 *3568:I 4.5 
3 *239:16 *239:27 6.628 
4 *239:27 *3267:A2 9 
5 *239:27 *3270:A2 9.836 
*END

*D_NET *240 0.0173037
*CONN
*I *3268:A2 I *D gf180mcu_fd_sc_mcu7t5v0__aoi21_1
*I *3260:A2 I *D gf180mcu_fd_sc_mcu7t5v0__aoi221_1
*I *3254:C1 I *D gf180mcu_fd_sc_mcu7t5v0__aoi222_1
*I *3265:A2 I *D gf180mcu_fd_sc_mcu7t5v0__aoi22_1
*I *3257:A2 I *D gf180mcu_fd_sc_mcu7t5v0__aoi221_1
*I *3335:A2 I *D gf180mcu_fd_sc_mcu7t5v0__nand2_1
*I *3263:A2 I *D gf180mcu_fd_sc_mcu7t5v0__aoi22_1
*I *3252:Z O *D gf180mcu_fd_sc_mcu7t5v0__and2_1
*CAP
1 *3268:A2 3.32972e-05
2 *3260:A2 0.000330011
3 *3254:C1 0.000218032
4 *3265:A2 0
5 *3257:A2 0
6 *3335:A2 0
7 *3263:A2 0
8 *3252:Z 0.00015448
9 *240:83 0.00175777
10 *240:65 0.000384223
11 *240:52 0.000646747
12 *240:29 0.00149777
13 *240:14 0.00109849
14 *240:10 0.00163022
15 *3254:C1 *3254:B1 0.000223937
16 *3254:C1 *3254:B2 0.000725294
17 *3254:C1 *3254:C2 3.08902e-05
18 *3254:C1 *330:42 0.000218888
19 *3254:C1 *938:8 8.18373e-05
20 *3260:A2 *3254:A1 0.000722482
21 *3260:A2 *251:8 8.8425e-05
22 *3260:A2 *334:14 0.000394076
23 *3260:A2 *419:14 0.000641843
24 *240:10 *3253:A1 7.59985e-05
25 *240:10 *3253:A2 6.89687e-05
26 *240:10 *3263:A1 7.83779e-05
27 *240:10 *3452:RN 3.83835e-06
28 *240:14 *3263:A1 0.000451288
29 *240:29 *3264:B2 7.19408e-05
30 *240:29 *3272:I0 0
31 *240:29 *3452:RN 0.000248576
32 *240:29 *241:19 1.44832e-05
33 *240:29 *283:8 0.000428174
34 *240:29 *283:43 0.000199473
35 *240:29 *333:18 0.000128009
36 *240:29 *337:12 0.000372667
37 *240:29 *341:38 0
38 *240:29 *341:40 0
39 *240:29 *341:44 0
40 *240:52 *3256:A2 0.000263864
41 *240:52 *333:18 2.96621e-05
42 *240:52 *337:29 0.000531452
43 *240:52 *421:22 4.79491e-05
44 *240:52 *937:12 0
45 *240:65 *3150:A1 0.000145978
46 *240:65 *3259:A1 0.000163491
47 *240:65 *3266:B2 0.000363817
48 *240:65 *337:29 1.02578e-05
49 *240:65 *421:22 3.37994e-05
50 *240:83 *3139:I 2.30587e-05
51 *240:83 *3140:I 1.09283e-05
52 *240:83 *3141:I 7.98085e-05
53 *240:83 *3175:A3 8.55327e-05
54 *240:83 *3263:A1 6.63473e-05
55 *3252:A1 *240:83 0
56 *3255:A1 *240:65 0.000173774
57 *3266:A1 *240:83 2.6583e-05
58 *3268:B *3268:A2 1.2339e-05
59 *3268:B *240:83 2.37511e-05
60 *3342:A1 *240:14 8.05328e-06
61 *3342:A1 *240:29 0.00119757
62 *41:12 *240:10 3.15412e-05
63 *144:8 *240:14 9.20895e-05
64 *144:8 *240:29 8.15645e-05
65 *144:8 *240:83 4.32304e-05
66 *144:33 *240:29 7.83779e-05
67 *238:33 *240:83 2.40654e-06
68 *238:44 *240:83 0.000184034
69 *238:48 *3260:A2 8.81805e-05
70 *238:52 *3260:A2 0.000232588
71 *239:16 *240:83 0.000151125
*RES
1 *3252:Z *240:10 10.368 
2 *240:10 *240:14 5.64 
3 *240:14 *3263:A2 4.5 
4 *240:14 *240:29 18.956 
5 *240:29 *3335:A2 4.5 
6 *240:29 *240:52 5.092 
7 *240:52 *3257:A2 4.5 
8 *240:52 *240:65 11.28 
9 *240:65 *3265:A2 4.5 
10 *240:65 *3254:C1 7.768 
11 *240:10 *240:83 13.924 
12 *240:83 *3260:A2 19.048 
13 *240:83 *3268:A2 4.728 
*END

*D_NET *241 0.00650624
*CONN
*I *3260:B1 I *D gf180mcu_fd_sc_mcu7t5v0__aoi221_1
*I *3263:B1 I *D gf180mcu_fd_sc_mcu7t5v0__aoi22_1
*I *3570:I I *D gf180mcu_fd_sc_mcu7t5v0__buf_2
*I *3253:ZN O *D gf180mcu_fd_sc_mcu7t5v0__nor2_1
*CAP
1 *3260:B1 0.00113888
2 *3263:B1 0
3 *3570:I 0.000149025
4 *3253:ZN 0.000148944
5 *241:19 0.00118872
6 *241:10 0.000347809
7 *3260:B1 *3138:I 0.000336512
8 *3260:B1 *3261:B2 0
9 *3260:B1 *3264:B2 0.000335786
10 *3260:B1 *3353:I1 1.02578e-05
11 *3260:B1 *329:42 9.8129e-05
12 *3260:B1 *341:38 8.8425e-05
13 *3260:B1 *341:40 0.000911953
14 *3570:I *3263:B2 0.000344204
15 *3570:I *3452:RN 5.29053e-05
16 *3570:I *326:90 8.22324e-05
17 *241:10 *3263:A1 0.000188422
18 *241:19 *3263:B2 6.00599e-05
19 *241:19 *3264:B2 1.5015e-05
20 *241:19 *3452:RN 2.88224e-05
21 *241:19 *337:12 2.25107e-05
22 *3260:C *3260:B1 5.48978e-05
23 *3342:A1 *241:10 0
24 *3444:D *3260:B1 7.45328e-07
25 *238:54 *3260:B1 0.000446435
26 *238:69 *3260:B1 0.000441063
27 *240:29 *241:19 1.44832e-05
*RES
1 *3253:ZN *241:10 14.792 
2 *241:10 *3570:I 6.4 
3 *241:10 *241:19 0.684 
4 *241:19 *3263:B1 4.5 
5 *241:19 *3260:B1 24.216 
*END

*D_NET *242 0.000396795
*CONN
*I *3255:A2 I *D gf180mcu_fd_sc_mcu7t5v0__nor2_1
*I *3254:ZN O *D gf180mcu_fd_sc_mcu7t5v0__aoi222_1
*CAP
1 *3255:A2 0.000123284
2 *3254:ZN 0.000123284
3 *3255:A2 *3150:A1 0.000132493
4 *3255:A2 *3254:B1 1.1971e-05
5 *3442:D *3255:A2 5.76373e-06
*RES
1 *3254:ZN *3255:A2 9.912 
*END

*D_NET *243 0.00118055
*CONN
*I *3258:B1 I *D gf180mcu_fd_sc_mcu7t5v0__aoi22_1
*I *3256:ZN O *D gf180mcu_fd_sc_mcu7t5v0__nand2_1
*CAP
1 *3258:B1 0.000216028
2 *3256:ZN 0.000216028
3 *3258:B1 *3256:A1 2.40898e-05
4 *3258:B1 *3442:CLKN 0.000566028
5 *3258:B1 *421:22 2.11616e-05
6 *3258:A1 *3258:B1 3.73535e-05
7 *3443:D *3258:B1 9.98614e-05
*RES
1 *3256:ZN *3258:B1 11.28 
*END

*D_NET *244 0.000373274
*CONN
*I *3258:B2 I *D gf180mcu_fd_sc_mcu7t5v0__aoi22_1
*I *3257:ZN O *D gf180mcu_fd_sc_mcu7t5v0__aoi221_1
*CAP
1 *3258:B2 0.00011873
2 *3257:ZN 0.00011873
3 *3258:B2 *3150:A1 6.18756e-05
4 *3258:B2 *3442:CLKN 5.71299e-05
5 *3258:B2 *421:22 1.68098e-05
*RES
1 *3257:ZN *3258:B2 9.836 
*END

*D_NET *245 0.000370526
*CONN
*I *3261:B1 I *D gf180mcu_fd_sc_mcu7t5v0__aoi22_1
*I *3259:ZN O *D gf180mcu_fd_sc_mcu7t5v0__nand2_1
*CAP
1 *3261:B1 4.40911e-05
2 *3259:ZN 4.40911e-05
3 *3261:B1 *3266:B2 6.49038e-05
4 *3261:B1 *3411:I 0.000151949
5 *238:69 *3261:B1 6.54913e-05
*RES
1 *3259:ZN *3261:B1 18.836 
*END

*D_NET *246 0.00138416
*CONN
*I *3261:B2 I *D gf180mcu_fd_sc_mcu7t5v0__aoi22_1
*I *3260:ZN O *D gf180mcu_fd_sc_mcu7t5v0__aoi221_1
*CAP
1 *3261:B2 0.000563921
2 *3260:ZN 0.000563921
3 *3261:B2 *3259:A2 0
4 *3261:B2 *3260:A1 7.83779e-05
5 *3261:B2 *3353:I1 0
6 *3260:B1 *3261:B2 0
7 *3260:C *3261:B2 1.64988e-05
8 *3462:D *3261:B2 0
9 *238:54 *3261:B2 0.000161437
*RES
1 *3260:ZN *3261:B2 12.8 
*END

*D_NET *247 0.00241952
*CONN
*I *3266:B1 I *D gf180mcu_fd_sc_mcu7t5v0__aoi22_1
*I *3264:B1 I *D gf180mcu_fd_sc_mcu7t5v0__aoi22_1
*I *3262:ZN O *D gf180mcu_fd_sc_mcu7t5v0__aoi21_1
*CAP
1 *3266:B1 8.18118e-05
2 *3264:B1 8.87061e-05
3 *3262:ZN 0.000347213
4 *247:10 0.000517731
5 *3264:B1 *329:42 0
6 *3266:B1 *3266:B2 0.000135941
7 *3266:B1 *342:53 0
8 *247:10 *3169:A1 2.6126e-05
9 *247:10 *3262:A2 5.04264e-05
10 *247:10 *3266:B2 0.000145096
11 *247:10 *329:42 0.000125025
12 *247:10 *329:55 1.7295e-05
13 *247:10 *334:20 0.000434272
14 *247:10 *342:53 0
15 *247:10 *419:6 5.55e-05
16 *3264:A1 *3266:B1 0
17 *3264:A2 *3266:B1 1.34641e-06
18 *144:33 *3264:B1 0.000379274
19 *144:33 *247:10 1.3758e-05
*RES
1 *3262:ZN *247:10 12.496 
2 *247:10 *3264:B1 9.988 
3 *247:10 *3266:B1 9.684 
*END

*D_NET *248 0.00265523
*CONN
*I *3264:B2 I *D gf180mcu_fd_sc_mcu7t5v0__aoi22_1
*I *3263:ZN O *D gf180mcu_fd_sc_mcu7t5v0__aoi22_1
*CAP
1 *3264:B2 0.000253661
2 *3263:ZN 0.000253661
3 *3264:B2 *329:42 0
4 *3260:B1 *3264:B2 0.000335786
5 *3444:RN *3264:B2 0.000386421
6 *144:33 *3264:B2 0.00133875
7 *240:29 *3264:B2 7.19408e-05
8 *241:19 *3264:B2 1.5015e-05
*RES
1 *3263:ZN *3264:B2 13.256 
*END

*D_NET *249 0.00620792
*CONN
*I *3266:B2 I *D gf180mcu_fd_sc_mcu7t5v0__aoi22_1
*I *3265:ZN O *D gf180mcu_fd_sc_mcu7t5v0__aoi22_1
*CAP
1 *3266:B2 0.000794116
2 *3265:ZN 0.000794116
3 *3266:B2 *3254:A2 0.000278996
4 *3266:B2 *3259:A1 0.000128601
5 *3266:B2 *3265:A1 1.5961e-05
6 *3266:B2 *3411:I 0.000609092
7 *3266:B2 *3446:CLKN 1.3758e-05
8 *3266:B2 *334:20 0.0020483
9 *3266:B2 *334:22 0.00071658
10 *3266:B2 *342:53 0
11 *3266:B2 *342:57 0
12 *3261:B1 *3266:B2 6.49038e-05
13 *3266:B1 *3266:B2 0.000135941
14 *3442:D *3266:B2 2.02592e-05
15 *144:33 *3266:B2 7.83779e-05
16 *238:69 *3266:B2 0
17 *240:65 *3266:B2 0.000363817
18 *247:10 *3266:B2 0.000145096
*RES
1 *3265:ZN *3266:B2 28.336 
*END

*D_NET *250 0.00020379
*CONN
*I *3269:B1 I *D gf180mcu_fd_sc_mcu7t5v0__aoi22_1
*I *3267:ZN O *D gf180mcu_fd_sc_mcu7t5v0__nand2_1
*CAP
1 *3269:B1 0.000101895
2 *3267:ZN 0.000101895
3 *3269:B1 *3271:B2 0
4 *239:27 *3269:B1 0
*RES
1 *3267:ZN *3269:B1 9.532 
*END

*D_NET *251 0.00218894
*CONN
*I *3271:B1 I *D gf180mcu_fd_sc_mcu7t5v0__aoi22_1
*I *3269:B2 I *D gf180mcu_fd_sc_mcu7t5v0__aoi22_1
*I *3268:ZN O *D gf180mcu_fd_sc_mcu7t5v0__aoi21_1
*CAP
1 *3271:B1 0.000130812
2 *3269:B2 0
3 *3268:ZN 0.000107232
4 *251:8 0.000238044
5 *251:8 *3169:A1 6.7497e-05
6 *251:8 *3254:A1 0.000276717
7 *251:8 *334:14 0.00018346
8 *3260:A2 *251:8 8.8425e-05
9 *3270:A2 *3271:B1 2.43212e-05
10 *3270:A2 *251:8 5.94709e-06
11 *3271:A2 *3271:B1 0.000406051
12 *238:122 *3271:B1 0.000276662
13 *238:122 *251:8 0.000341606
14 *239:27 *251:8 4.21654e-05
*RES
1 *3268:ZN *251:8 11.508 
2 *251:8 *3269:B2 9 
3 *251:8 *3271:B1 10.748 
*END

*D_NET *252 0.000356873
*CONN
*I *3271:B2 I *D gf180mcu_fd_sc_mcu7t5v0__aoi22_1
*I *3270:ZN O *D gf180mcu_fd_sc_mcu7t5v0__nand2_1
*CAP
1 *3271:B2 0.000178436
2 *3270:ZN 0.000178436
3 *3269:B1 *3271:B2 0
*RES
1 *3270:ZN *3271:B2 10.064 
*END

*D_NET *253 0.00858924
*CONN
*I *3278:A2 I *D gf180mcu_fd_sc_mcu7t5v0__nor2_1
*I *3295:A2 I *D gf180mcu_fd_sc_mcu7t5v0__nand3_1
*I *3277:Z O *D gf180mcu_fd_sc_mcu7t5v0__mux4_1
*CAP
1 *3278:A2 3.49621e-05
2 *3295:A2 0.000315017
3 *3277:Z 0.00129135
4 *253:14 0.00164133
5 *3278:A2 *321:89 0
6 *3295:A2 *3295:A3 4.63109e-05
7 *3295:A2 *3296:A1 2.62889e-05
8 *3295:A2 *343:266 0.000314428
9 *3295:A2 *343:268 3.83192e-05
10 *3295:A2 *343:383 0.000137785
11 *3295:A2 *343:390 0.00023197
12 *253:14 *3126:I 4.89423e-05
13 *253:14 *3243:C 0.00110499
14 *253:14 *3277:I2 0
15 *253:14 *3277:S0 0.000285612
16 *253:14 *3296:A1 9.32395e-05
17 *253:14 *3480:CLK 0.000145013
18 *253:14 *3511:CLK 0.000287536
19 *253:14 *322:105 1.33951e-05
20 *253:14 *343:264 0.000663612
21 *253:14 *343:266 0.000732337
22 *253:14 *392:8 0.000374934
23 *253:14 *392:50 0.000190893
24 *3279:A1 *3295:A2 2.67745e-05
25 *3279:A2 *3278:A2 3.2657e-05
26 *3279:A2 *3295:A2 0.000116796
27 *3477:D *3295:A2 5.62475e-05
28 *3480:D *253:14 0.000303906
29 *3513:D *253:14 3.45911e-05
*RES
1 *3277:Z *253:14 25.568 
2 *253:14 *3295:A2 12.344 
3 *253:14 *3278:A2 9.228 
*END

*D_NET *254 0.000569605
*CONN
*I *3279:B I *D gf180mcu_fd_sc_mcu7t5v0__aoi21_1
*I *3278:ZN O *D gf180mcu_fd_sc_mcu7t5v0__nor2_1
*CAP
1 *3279:B 0.000192338
2 *3278:ZN 0.000192338
3 *3279:B *3296:B 0
4 *3279:B *266:8 8.68403e-05
5 *3279:A2 *3279:B 9.80884e-05
*RES
1 *3278:ZN *3279:B 10.672 
*END

*D_NET *255 0.00737858
*CONN
*I *3283:A2 I *D gf180mcu_fd_sc_mcu7t5v0__nand2_1
*I *3307:A1 I *D gf180mcu_fd_sc_mcu7t5v0__nand2_1
*I *3301:A1 I *D gf180mcu_fd_sc_mcu7t5v0__nand2_1
*I *3280:ZN O *D gf180mcu_fd_sc_mcu7t5v0__nor2_1
*CAP
1 *3283:A2 0.000273667
2 *3307:A1 0.000400085
3 *3301:A1 0.000130446
4 *3280:ZN 0.000270193
5 *255:14 0.000985861
6 *255:10 0.000999191
7 *3283:A2 *3221:A1 5.76373e-06
8 *3283:A2 *3425:CLK 1.44832e-05
9 *3283:A2 *392:25 0.000471077
10 *3301:A1 *3310:I1 1.26081e-06
11 *3301:A1 *375:19 4.22029e-06
12 *3301:A1 *375:31 0
13 *3301:A1 *375:66 0
14 *3307:A1 *3295:A3 8.56396e-05
15 *3307:A1 *3307:A2 2.5879e-05
16 *3307:A1 *3309:A2 0
17 *3307:A1 *3310:I1 0.0002142
18 *3307:A1 *3555:I 1.85245e-05
19 *3307:A1 *265:8 2.59409e-05
20 *3307:A1 *375:66 0
21 *255:10 *256:6 2.7541e-05
22 *255:10 *392:8 0.000517091
23 *255:14 *3296:A1 0.000898232
24 *255:14 *267:8 0.000516581
25 *255:14 *343:272 0
26 *255:14 *375:25 0.000384885
27 *255:14 *392:8 0.000117908
28 *3244:A2 *3283:A2 0.000193933
29 *3244:A2 *255:10 0.000160944
30 *3279:A2 *255:14 0.00017961
31 *3477:D *255:14 0.000431781
32 *3515:D *255:10 2.36438e-05
*RES
1 *3280:ZN *255:10 11.584 
2 *255:10 *255:14 11.872 
3 *255:14 *3301:A1 5.032 
4 *255:14 *3307:A1 16.54 
5 *255:10 *3283:A2 11.812 
*END

*D_NET *256 0.00555822
*CONN
*I *3290:A1 I *D gf180mcu_fd_sc_mcu7t5v0__nor3_1
*I *3292:A1 I *D gf180mcu_fd_sc_mcu7t5v0__nor2_1
*I *3282:A2 I *D gf180mcu_fd_sc_mcu7t5v0__nor2_1
*I *3281:Z O *D gf180mcu_fd_sc_mcu7t5v0__or2_1
*CAP
1 *3290:A1 1.81002e-05
2 *3292:A1 0.000115439
3 *3282:A2 0.000297069
4 *3281:Z 0.000497925
5 *256:21 0.000942859
6 *256:6 0.00160431
7 *3282:A2 *3221:A1 0
8 *3282:A2 *3530:I 3.92049e-05
9 *3290:A1 *3290:A3 1.67178e-05
10 *3290:A1 *343:251 3.2657e-05
11 *3292:A1 *3290:A3 0.000113423
12 *3292:A1 *3291:A2 9.58397e-05
13 *3292:A1 *343:251 0.000357193
14 *256:6 *3243:C 5.19635e-05
15 *256:6 *3280:A1 2.40898e-05
16 *256:6 *3281:A2 6.22405e-05
17 *256:6 *3530:I 0.000124504
18 *256:6 *388:8 8.55327e-05
19 *256:21 *3290:A2 0.000173941
20 *256:21 *3531:I 0.000209772
21 *256:21 *413:10 5.46321e-06
22 *256:21 *413:12 3.15814e-05
23 *256:21 *413:18 0.000145273
24 *3229:B *256:21 0.00032266
25 *3244:A2 *256:21 0.000137609
26 *3513:D *256:21 0
27 *218:8 *256:21 2.5309e-05
28 *255:10 *256:6 2.7541e-05
*RES
1 *3281:Z *256:6 7.92 
2 *256:6 *3282:A2 6.324 
3 *256:6 *256:21 15.46 
4 *256:21 *3292:A1 6.248 
5 *256:21 *3290:A1 4.728 
*END

*D_NET *257 0.00327652
*CONN
*I *3286:A2 I *D gf180mcu_fd_sc_mcu7t5v0__nand2_1
*I *3296:B I *D gf180mcu_fd_sc_mcu7t5v0__aoi21_1
*I *3284:A2 I *D gf180mcu_fd_sc_mcu7t5v0__nand2_1
*I *3282:ZN O *D gf180mcu_fd_sc_mcu7t5v0__nor2_1
*CAP
1 *3286:A2 0
2 *3296:B 0.000438121
3 *3284:A2 0
4 *3282:ZN 0.000275517
5 *257:16 0.000633046
6 *257:10 0.000470442
7 *3296:B *3298:A2 0
8 *3296:B *3425:CLK 1.985e-05
9 *3296:B *321:6 0
10 *3296:B *321:82 0
11 *3296:B *392:25 0
12 *3296:B *411:73 1.91917e-06
13 *257:10 *3221:A1 1.0392e-05
14 *257:10 *3225:A1 2.85028e-05
15 *257:10 *3225:A2 9.57807e-06
16 *257:10 *3287:A3 0.000337464
17 *257:10 *258:10 5.66861e-05
18 *257:10 *411:10 0.00016003
19 *257:10 *411:21 3.37485e-05
20 *257:16 *3285:A1 2.88155e-05
21 *257:16 *3285:B 0.00032464
22 *257:16 *3425:CLK 7.54771e-06
23 *257:16 *258:10 0.000229879
24 *257:16 *411:6 1.33547e-05
25 *257:16 *411:10 4.58467e-05
26 *257:16 *411:73 4.53143e-05
27 *3279:B *3296:B 0
28 *3287:A1 *257:10 1.08016e-05
29 *3287:A2 *257:10 9.50253e-05
*RES
1 *3282:ZN *257:10 11.888 
2 *257:10 *257:16 6.932 
3 *257:16 *3284:A2 4.5 
4 *257:16 *3296:B 7.236 
5 *257:10 *3286:A2 9 
*END

*D_NET *258 0.00492957
*CONN
*I *3287:A3 I *D gf180mcu_fd_sc_mcu7t5v0__oai31_1
*I *3285:A2 I *D gf180mcu_fd_sc_mcu7t5v0__oai21_1
*I *3298:A1 I *D gf180mcu_fd_sc_mcu7t5v0__nor2_1
*I *3283:ZN O *D gf180mcu_fd_sc_mcu7t5v0__nand2_1
*CAP
1 *3287:A3 0.000200789
2 *3285:A2 7.25682e-05
3 *3298:A1 0.000352201
4 *3283:ZN 0.000118583
5 *258:10 0.000650371
6 *258:8 0.000544973
7 *3285:A2 *3285:A1 1.81922e-05
8 *3298:A1 *3478:RN 0.000653285
9 *3298:A1 *321:6 0
10 *3298:A1 *321:12 0
11 *3298:A1 *375:12 3.78441e-05
12 *3298:A1 *376:10 5.48085e-05
13 *258:8 *3286:A1 0.000361006
14 *258:8 *3425:CLK 1.2018e-05
15 *258:10 *3285:A1 0
16 *258:10 *3478:RN 0.000333388
17 *258:10 *411:73 0
18 *3287:A1 *3287:A3 1.91917e-06
19 *3287:A1 *258:8 3.67395e-05
20 *3478:D *3285:A2 0.000134622
21 *3478:D *3298:A1 0.000647602
22 *3478:D *258:10 5.43763e-05
23 *3479:D *3287:A3 1.52768e-05
24 *3479:D *258:8 4.97712e-06
25 *257:10 *3287:A3 0.000337464
26 *257:10 *258:10 5.66861e-05
27 *257:16 *258:10 0.000229879
*RES
1 *3283:ZN *258:8 10.14 
2 *258:8 *258:10 2.508 
3 *258:10 *3298:A1 12.8 
4 *258:10 *3285:A2 9.532 
5 *258:8 *3287:A3 10.976 
*END

*D_NET *259 0.000885919
*CONN
*I *3285:B I *D gf180mcu_fd_sc_mcu7t5v0__oai21_1
*I *3284:ZN O *D gf180mcu_fd_sc_mcu7t5v0__nand2_1
*CAP
1 *3285:B 0.000225115
2 *3284:ZN 0.000225115
3 *3285:B *3285:A1 0.000111049
4 *3285:B *3425:CLK 0
5 *257:16 *3285:B 0.00032464
*RES
1 *3284:ZN *3285:B 10.9 
*END

*D_NET *260 0.000109345
*CONN
*I *3287:B I *D gf180mcu_fd_sc_mcu7t5v0__oai31_1
*I *3286:ZN O *D gf180mcu_fd_sc_mcu7t5v0__nand2_1
*CAP
1 *3287:B 5.46724e-05
2 *3286:ZN 5.46724e-05
*RES
1 *3286:ZN *3287:B 9.38 
*END

*D_NET *261 0.000410399
*CONN
*I *3290:A2 I *D gf180mcu_fd_sc_mcu7t5v0__nor3_1
*I *3288:ZN O *D gf180mcu_fd_sc_mcu7t5v0__aoi21_1
*CAP
1 *3290:A2 5.82123e-05
2 *3288:ZN 5.82123e-05
3 *3290:A2 *413:10 0.000102192
4 *3513:D *3290:A2 1.78413e-05
5 *256:21 *3290:A2 0.000173941
*RES
1 *3288:ZN *3290:A2 18.988 
*END

*D_NET *262 0.00186719
*CONN
*I *3290:A3 I *D gf180mcu_fd_sc_mcu7t5v0__nor3_1
*I *3291:A2 I *D gf180mcu_fd_sc_mcu7t5v0__xnor2_1
*I *3289:Z O *D gf180mcu_fd_sc_mcu7t5v0__and3_1
*CAP
1 *3290:A3 0.000103294
2 *3291:A2 0.000433492
3 *3289:Z 3.28034e-05
4 *262:6 0.00056959
5 *3291:A2 *3291:A1 8.55327e-05
6 *3291:A2 *322:23 0
7 *3291:A2 *343:234 5.02133e-05
8 *3291:A2 *343:251 0.000189737
9 *3288:A2 *3290:A3 7.64884e-05
10 *3290:A1 *3290:A3 1.67178e-05
11 *3292:A1 *3290:A3 0.000113423
12 *3292:A1 *3291:A2 9.58397e-05
13 *219:32 *3290:A3 5.76373e-06
14 *219:32 *3291:A2 9.42931e-05
*RES
1 *3289:Z *262:6 4.728 
2 *262:6 *3291:A2 8.072 
3 *262:6 *3290:A3 5.64 
*END

*D_NET *263 0.00124874
*CONN
*I *3292:A2 I *D gf180mcu_fd_sc_mcu7t5v0__nor2_1
*I *3291:ZN O *D gf180mcu_fd_sc_mcu7t5v0__xnor2_1
*CAP
1 *3292:A2 0.000229671
2 *3291:ZN 0.000229671
3 *3292:A2 *343:234 0.000268492
4 *3292:A2 *343:251 3.27451e-05
5 *3481:D *3292:A2 0.000488164
*RES
1 *3291:ZN *3292:A2 11.204 
*END

*D_NET *264 0.000109546
*CONN
*I *3301:A2 I *D gf180mcu_fd_sc_mcu7t5v0__nand2_1
*I *3293:ZN O *D gf180mcu_fd_sc_mcu7t5v0__nand2_1
*CAP
1 *3301:A2 5.34876e-05
2 *3293:ZN 5.34876e-05
3 *3301:A2 *3310:I1 2.57058e-06
*RES
1 *3293:ZN *3301:A2 9.38 
*END

*D_NET *265 0.00267264
*CONN
*I *3295:A3 I *D gf180mcu_fd_sc_mcu7t5v0__nand3_1
*I *3307:A2 I *D gf180mcu_fd_sc_mcu7t5v0__nand2_1
*I *3294:ZN O *D gf180mcu_fd_sc_mcu7t5v0__nand4_1
*CAP
1 *3295:A3 0.000418244
2 *3307:A2 0.000110657
3 *3294:ZN 0.000124661
4 *265:8 0.000653562
5 *3295:A3 *3131:I 4.08987e-05
6 *3295:A3 *3477:CLK 0.000635329
7 *3295:A3 *343:272 0.000113344
8 *3295:A3 *343:390 2.25107e-05
9 *3307:A2 *3309:A2 4.63109e-05
10 *3307:A2 *3310:I1 0
11 *265:8 *3132:I 6.49724e-05
12 *265:8 *3555:I 0
13 *265:8 *343:272 9.9501e-05
14 *265:8 *375:66 0.000158878
15 *3295:A2 *3295:A3 4.63109e-05
16 *3303:A1 *3307:A2 0
17 *3307:A1 *3295:A3 8.56396e-05
18 *3307:A1 *3307:A2 2.5879e-05
19 *3307:A1 *265:8 2.59409e-05
*RES
1 *3294:ZN *265:8 10.596 
2 *265:8 *3307:A2 9.684 
3 *265:8 *3295:A3 13.864 
*END

*D_NET *266 0.00213617
*CONN
*I *3296:A2 I *D gf180mcu_fd_sc_mcu7t5v0__aoi21_1
*I *3298:A2 I *D gf180mcu_fd_sc_mcu7t5v0__nor2_1
*I *3295:ZN O *D gf180mcu_fd_sc_mcu7t5v0__nand3_1
*CAP
1 *3296:A2 0
2 *3298:A2 0.000317755
3 *3295:ZN 0.000371785
4 *266:8 0.00068954
5 *3298:A2 *3296:A1 1.02578e-05
6 *3298:A2 *267:8 0
7 *266:8 *3296:A1 7.31727e-05
8 *3279:A1 *266:8 0.000586823
9 *3279:A2 *266:8 0
10 *3279:B *266:8 8.68403e-05
11 *3296:B *3298:A2 0
*RES
1 *3295:ZN *266:8 7.54 
2 *266:8 *3298:A2 15.476 
3 *266:8 *3296:A2 4.5 
*END

*D_NET *267 0.00742044
*CONN
*I *3303:B2 I *D gf180mcu_fd_sc_mcu7t5v0__aoi22_1
*I *3297:A2 I *D gf180mcu_fd_sc_mcu7t5v0__nand2_1
*I *3309:A1 I *D gf180mcu_fd_sc_mcu7t5v0__aoi22_1
*I *3302:A1 I *D gf180mcu_fd_sc_mcu7t5v0__nand2_1
*I *3308:A4 I *D gf180mcu_fd_sc_mcu7t5v0__nand4_1
*I *3296:ZN O *D gf180mcu_fd_sc_mcu7t5v0__aoi21_1
*CAP
1 *3303:B2 4.06686e-06
2 *3297:A2 0.000201579
3 *3309:A1 7.67018e-05
4 *3302:A1 0
5 *3308:A4 0.000399121
6 *3296:ZN 0.000297197
7 *267:32 0.000311084
8 *267:30 3.68703e-05
9 *267:12 0.000523483
10 *267:8 0.000421559
11 *3297:A2 *3299:A2 1.76797e-05
12 *3297:A2 *3304:A1 0.00022651
13 *3297:A2 *3306:A2 7.83779e-05
14 *3297:A2 *3484:CLK 0.000269848
15 *3297:A2 *269:12 0.000190808
16 *3297:A2 *375:31 3.83192e-05
17 *3297:A2 *375:35 2.23783e-05
18 *3303:B2 *3304:A1 3.08902e-05
19 *3303:B2 *376:25 5.4634e-05
20 *3308:A4 *3305:A1 0
21 *3308:A4 *3305:A2 0.00026286
22 *3308:A4 *3309:B1 0.000294692
23 *3308:A4 *376:25 0
24 *3309:A1 *376:25 4.17249e-05
25 *267:8 *3302:A2 1.3575e-05
26 *267:8 *3309:A2 8.47402e-05
27 *267:8 *269:12 0
28 *267:8 *375:25 0.000470947
29 *267:8 *376:10 0.00083243
30 *267:8 *376:14 0.00134977
31 *267:12 *3302:A2 0.000166035
32 *267:12 *3306:A2 0
33 *267:12 *3309:A2 3.16765e-06
34 *267:12 *377:51 5.40431e-05
35 *267:32 *3304:A1 0
36 *3298:A2 *267:8 0
37 *3309:B2 *3308:A4 0.000128771
38 *255:14 *267:8 0.000516581
*RES
1 *3296:ZN *267:8 16.22 
2 *267:8 *267:12 5.488 
3 *267:12 *3308:A4 8.072 
4 *267:12 *3302:A1 4.5 
5 *267:8 *267:30 4.5 
6 *267:30 *267:32 0.228 
7 *267:32 *3309:A1 5.26 
8 *267:32 *3297:A2 16.084 
9 *267:30 *3303:B2 4.728 
*END

*D_NET *268 0.00109313
*CONN
*I *3303:A2 I *D gf180mcu_fd_sc_mcu7t5v0__aoi22_1
*I *3299:B I *D gf180mcu_fd_sc_mcu7t5v0__oai21_1
*I *3297:ZN O *D gf180mcu_fd_sc_mcu7t5v0__nand2_1
*CAP
1 *3303:A2 0.000120407
2 *3299:B 0.000122006
3 *3297:ZN 0.000242413
4 *3299:B *3299:A1 2.14729e-05
5 *3299:B *3304:A1 1.72912e-05
6 *3299:B *3304:A2 6.48311e-06
7 *3299:B *3484:CLK 0.000257168
8 *3299:B *321:27 0.000123561
9 *3303:A2 *3304:A1 6.12935e-05
10 *3303:A2 *375:31 9.17202e-06
11 *3483:D *3303:A2 0.000111858
*RES
1 *3297:ZN *3299:B 10.292 
2 *3297:ZN *3303:A2 10.064 
*END

*D_NET *269 0.00265441
*CONN
*I *3304:A3 I *D gf180mcu_fd_sc_mcu7t5v0__nand3_1
*I *3299:A2 I *D gf180mcu_fd_sc_mcu7t5v0__oai21_1
*I *3298:ZN O *D gf180mcu_fd_sc_mcu7t5v0__nor2_1
*CAP
1 *3304:A3 0
2 *3299:A2 0.000157045
3 *3298:ZN 0.000827263
4 *269:12 0.000984308
5 *3299:A2 *3299:A1 6.14317e-05
6 *3299:A2 *3304:A2 2.03965e-05
7 *3299:A2 *3306:A2 9.88736e-06
8 *3299:A2 *3484:CLK 0
9 *269:12 *3302:A2 2.64613e-05
10 *269:12 *3306:A2 0.000174758
11 *269:12 *3484:CLK 8.65627e-06
12 *269:12 *271:8 5.24324e-05
13 *269:12 *375:12 5.08053e-05
14 *269:12 *375:31 3.15814e-05
15 *269:12 *376:10 0
16 *269:12 *376:14 0
17 *3297:A2 *3299:A2 1.76797e-05
18 *3297:A2 *269:12 0.000190808
19 *3483:D *269:12 4.08987e-05
20 *267:8 *269:12 0
*RES
1 *3298:ZN *269:12 20.036 
2 *269:12 *3299:A2 5.564 
3 *269:12 *3304:A3 4.5 
*END

*D_NET *270 0.000682068
*CONN
*I *3300:I I *D gf180mcu_fd_sc_mcu7t5v0__clkinv_1
*I *3299:ZN O *D gf180mcu_fd_sc_mcu7t5v0__oai21_1
*CAP
1 *3300:I 0.000273243
2 *3299:ZN 0.000273243
3 *3300:I *321:16 8.84331e-05
4 *3300:I *321:27 4.71484e-05
5 *3300:I *375:35 0
*RES
1 *3299:ZN *3300:I 19.824 
*END

*D_NET *271 0.00178801
*CONN
*I *3303:B1 I *D gf180mcu_fd_sc_mcu7t5v0__aoi22_1
*I *3302:A2 I *D gf180mcu_fd_sc_mcu7t5v0__nand2_1
*I *3301:ZN O *D gf180mcu_fd_sc_mcu7t5v0__nand2_1
*CAP
1 *3303:B1 0
2 *3302:A2 0.000105138
3 *3301:ZN 9.25884e-05
4 *271:8 0.000197726
5 *3302:A2 *3306:A2 0
6 *3302:A2 *376:14 8.84331e-05
7 *271:8 *376:14 0.00083929
8 *3483:D *271:8 0.000206333
9 *267:8 *3302:A2 1.3575e-05
10 *267:12 *3302:A2 0.000166035
11 *269:12 *3302:A2 2.64613e-05
12 *269:12 *271:8 5.24324e-05
*RES
1 *3301:ZN *271:8 11.052 
2 *271:8 *3302:A2 10.14 
3 *271:8 *3303:B1 9 
*END

*D_NET *272 0.000681867
*CONN
*I *3305:A2 I *D gf180mcu_fd_sc_mcu7t5v0__nand2_1
*I *3302:ZN O *D gf180mcu_fd_sc_mcu7t5v0__nand2_1
*CAP
1 *3305:A2 0.000209504
2 *3302:ZN 0.000209504
3 *3305:A2 *3305:A1 0
4 *3308:A4 *3305:A2 0.00026286
*RES
1 *3302:ZN *3305:A2 10.672 
*END

*D_NET *273 0.00109223
*CONN
*I *3306:A2 I *D gf180mcu_fd_sc_mcu7t5v0__oai21_1
*I *3304:ZN O *D gf180mcu_fd_sc_mcu7t5v0__nand3_1
*CAP
1 *3306:A2 0.000274897
2 *3304:ZN 0.000274897
3 *3306:A2 *3484:CLK 0.000279416
4 *3297:A2 *3306:A2 7.83779e-05
5 *3299:A2 *3306:A2 9.88736e-06
6 *3302:A2 *3306:A2 0
7 *267:12 *3306:A2 0
8 *269:12 *3306:A2 0.000174758
*RES
1 *3304:ZN *3306:A2 20.736 
*END

*D_NET *274 0.00134837
*CONN
*I *3306:B I *D gf180mcu_fd_sc_mcu7t5v0__oai21_1
*I *3305:ZN O *D gf180mcu_fd_sc_mcu7t5v0__nand2_1
*CAP
1 *3306:B 0.000300811
2 *3305:ZN 0.000300811
3 *3306:B *3306:A1 0.000366542
4 *3306:B *377:12 4.6818e-05
5 *3306:B *377:25 0.000145096
6 *3306:B *377:36 0.000188292
*RES
1 *3305:ZN *3306:B 21.04 
*END

*D_NET *275 0.00136484
*CONN
*I *3309:A2 I *D gf180mcu_fd_sc_mcu7t5v0__aoi22_1
*I *3307:ZN O *D gf180mcu_fd_sc_mcu7t5v0__nand2_1
*CAP
1 *3309:A2 0.000470408
2 *3307:ZN 0.000470408
3 *3309:A2 *343:272 5.02496e-05
4 *3309:A2 *375:25 3.93428e-05
5 *3309:A2 *375:66 0.00018401
6 *3303:A1 *3309:A2 1.62028e-05
7 *3307:A1 *3309:A2 0
8 *3307:A2 *3309:A2 4.63109e-05
9 *267:8 *3309:A2 8.47402e-05
10 *267:12 *3309:A2 3.16765e-06
*RES
1 *3307:ZN *3309:A2 21.496 
*END

*D_NET *276 0.00131833
*CONN
*I *3309:B1 I *D gf180mcu_fd_sc_mcu7t5v0__aoi22_1
*I *3308:ZN O *D gf180mcu_fd_sc_mcu7t5v0__nand4_1
*CAP
1 *3309:B1 0.00022923
2 *3308:ZN 0.00022923
3 *3309:B1 *3294:A4 0.000380016
4 *3309:B1 *377:51 0.000106782
5 *3308:A4 *3309:B1 0.000294692
6 *3309:B2 *3309:B1 7.83779e-05
*RES
1 *3308:ZN *3309:B1 12.04 
*END

*D_NET *277 0.000196821
*CONN
*I *3312:B I *D gf180mcu_fd_sc_mcu7t5v0__aoi21_1
*I *3311:ZN O *D gf180mcu_fd_sc_mcu7t5v0__nor2_1
*CAP
1 *3312:B 9.84103e-05
2 *3311:ZN 9.84103e-05
*RES
1 *3311:ZN *3312:B 9.684 
*END

*D_NET *278 0.000877953
*CONN
*I *3315:B I *D gf180mcu_fd_sc_mcu7t5v0__aoi21_1
*I *3314:ZN O *D gf180mcu_fd_sc_mcu7t5v0__nor2_1
*CAP
1 *3315:B 0.000239183
2 *3314:ZN 0.000239183
3 *3315:B *3314:A1 0.000193942
4 *3315:B *343:301 2.03588e-05
5 *3315:B *343:314 3.82104e-05
6 *3315:B *397:23 5.05618e-05
7 *3489:D *3315:B 9.65141e-05
*RES
1 *3314:ZN *3315:B 10.9 
*END

*D_NET *279 0.000153083
*CONN
*I *3322:B I *D gf180mcu_fd_sc_mcu7t5v0__oai21_1
*I *3321:ZN O *D gf180mcu_fd_sc_mcu7t5v0__nand2_1
*CAP
1 *3322:B 7.65413e-05
2 *3321:ZN 7.65413e-05
*RES
1 *3321:ZN *3322:B 9.532 
*END

*D_NET *280 0.000377412
*CONN
*I *3327:B I *D gf180mcu_fd_sc_mcu7t5v0__oai21_1
*I *3326:ZN O *D gf180mcu_fd_sc_mcu7t5v0__nand2_1
*CAP
1 *3327:B 0.000188706
2 *3326:ZN 0.000188706
3 *3327:B *390:72 0
4 *3327:B *390:81 0
*RES
1 *3326:ZN *3327:B 10.064 
*END

*D_NET *281 0.00133796
*CONN
*I *3329:B I *D gf180mcu_fd_sc_mcu7t5v0__oai21_1
*I *3328:ZN O *D gf180mcu_fd_sc_mcu7t5v0__nand2_1
*CAP
1 *3329:B 0.000625316
2 *3328:ZN 0.000625316
3 *3329:B *3329:A2 0
4 *3329:B *390:159 8.7332e-05
*RES
1 *3328:ZN *3329:B 22.104 
*END

*D_NET *282 0.000774317
*CONN
*I *3334:B I *D gf180mcu_fd_sc_mcu7t5v0__aoi21_1
*I *3333:ZN O *D gf180mcu_fd_sc_mcu7t5v0__nor2_1
*CAP
1 *3334:B 0.000211366
2 *3333:ZN 0.000211366
3 *3334:B *3509:RN 4.63008e-05
4 *3334:B *329:14 0.000119313
5 *3334:B *329:27 2.22758e-05
6 *3334:B *351:24 5.5493e-05
7 *231:10 *3334:B 1.85245e-05
8 *231:16 *3334:B 8.96783e-05
*RES
1 *3333:ZN *3334:B 19.824 
*END

*D_NET *283 0.0123669
*CONN
*I *3339:A2 I *D gf180mcu_fd_sc_mcu7t5v0__nor2_1
*I *3340:A2 I *D gf180mcu_fd_sc_mcu7t5v0__aoi21_1
*I *3565:I I *D gf180mcu_fd_sc_mcu7t5v0__buf_2
*I *3342:A2 I *D gf180mcu_fd_sc_mcu7t5v0__aoi21_1
*I *3341:A2 I *D gf180mcu_fd_sc_mcu7t5v0__nor2_1
*I *3335:ZN O *D gf180mcu_fd_sc_mcu7t5v0__nand2_1
*CAP
1 *3339:A2 0.000165915
2 *3340:A2 0.000100568
3 *3565:I 0
4 *3342:A2 0
5 *3341:A2 0.000329313
6 *3335:ZN 8.32049e-05
7 *283:43 0.00128654
8 *283:20 0.000541131
9 *283:12 0.000298225
10 *283:8 0.00118967
11 *3339:A2 *417:27 0.000107858
12 *3340:A2 *3268:A1 0.00124967
13 *3340:A2 *3340:B 0.00101156
14 *3341:A2 *3342:B 0.000268309
15 *3341:A2 *3452:CLK 0.000239669
16 *3341:A2 *326:12 3.73627e-05
17 *283:8 *337:12 0.000108195
18 *283:12 *333:18 2.23598e-06
19 *283:12 *421:22 0.000239048
20 *283:20 *3342:B 7.24161e-06
21 *283:20 *3452:CLK 2.23385e-05
22 *283:20 *287:21 0.000687088
23 *283:20 *326:12 0
24 *283:20 *337:12 0.00156042
25 *283:43 *3137:I 5.26936e-05
26 *283:43 *3150:A1 0
27 *283:43 *3254:A2 0.000103888
28 *283:43 *3256:A2 0.000803603
29 *283:43 *3272:I0 3.62623e-05
30 *283:43 *3549:I 4.17433e-06
31 *283:43 *337:12 5.44937e-05
32 *283:43 *417:27 0.000117704
33 *283:43 *421:22 0.000234183
34 *283:43 *934:29 6.08394e-05
35 *3258:A1 *283:43 0.00015398
36 *3342:A1 *283:20 4.58601e-06
37 *3442:RN *283:43 0.000103272
38 *3443:D *283:43 0.000474016
39 *240:29 *283:8 0.000428174
40 *240:29 *283:43 0.000199473
*RES
1 *3335:ZN *283:8 10.14 
2 *283:8 *283:12 5.184 
3 *283:12 *283:20 13.104 
4 *283:20 *3341:A2 7.464 
5 *283:20 *3342:A2 4.5 
6 *283:12 *3565:I 4.5 
7 *283:8 *283:43 13.772 
8 *283:43 *3340:A2 16.616 
9 *283:43 *3339:A2 5.716 
*END

*D_NET *284 0.000983239
*CONN
*I *3337:B I *D gf180mcu_fd_sc_mcu7t5v0__aoi21_1
*I *3336:ZN O *D gf180mcu_fd_sc_mcu7t5v0__nor2_1
*CAP
1 *3337:B 0.000339336
2 *3336:ZN 0.000339336
3 *3337:B *3272:I1 3.70827e-05
4 *3337:B *3336:A1 0.000154451
5 *3337:B *3336:A2 3.46548e-05
6 *3337:B *3449:CLK 0
7 *3337:B *374:25 7.83779e-05
*RES
1 *3336:ZN *3337:B 11.28 
*END

*D_NET *285 0.00293588
*CONN
*I *3340:B I *D gf180mcu_fd_sc_mcu7t5v0__aoi21_1
*I *3339:ZN O *D gf180mcu_fd_sc_mcu7t5v0__nor2_1
*CAP
1 *3340:B 0.000178168
2 *3339:ZN 0.000178168
3 *3340:B *3268:A1 0.000150074
4 *3340:B *3339:A1 0.000317503
5 *3340:B *3353:I1 0.000775767
6 *3340:B *417:27 0.00032464
7 *3340:A2 *3340:B 0.00101156
*RES
1 *3339:ZN *3340:B 22.104 
*END

*D_NET *286 0.00121519
*CONN
*I *3342:B I *D gf180mcu_fd_sc_mcu7t5v0__aoi21_1
*I *3341:ZN O *D gf180mcu_fd_sc_mcu7t5v0__nor2_1
*CAP
1 *3342:B 0.000469817
2 *3341:ZN 0.000469817
3 *3342:B *329:42 0
4 *3342:B *928:8 0
5 *3341:A2 *3342:B 0.000268309
6 *283:20 *3342:B 7.24161e-06
*RES
1 *3341:ZN *3342:B 12.268 
*END

*D_NET *287 0.0092815
*CONN
*I *3353:S I *D gf180mcu_fd_sc_mcu7t5v0__mux2_2
*I *3354:S I *D gf180mcu_fd_sc_mcu7t5v0__mux2_2
*I *3567:I I *D gf180mcu_fd_sc_mcu7t5v0__buf_2
*I *3350:ZN O *D gf180mcu_fd_sc_mcu7t5v0__nand2_1
*CAP
1 *3353:S 0.000957813
2 *3354:S 0.00033554
3 *3567:I 0.00016126
4 *3350:ZN 7.87065e-05
5 *287:21 0.00144825
6 *287:8 0.00039486
7 *3353:S *3259:A2 3.14377e-05
8 *3353:S *3411:I 0
9 *3353:S *3412:I 0
10 *3353:S *3462:CLK 0.000829789
11 *3353:S *934:29 0.00219473
12 *3354:S *3354:I0 5.76373e-06
13 *3354:S *934:29 0.0013089
14 *3567:I *333:18 3.22221e-05
15 *3567:I *421:6 7.42484e-05
16 *3567:I *421:22 5.97012e-05
17 *3567:I *937:12 0
18 *287:8 *3338:I1 0.000148623
19 *287:8 *330:8 0.000132929
20 *287:8 *337:12 9.55749e-05
21 *287:21 *3338:I1 7.6687e-05
22 *287:21 *3535:I 0
23 *287:21 *326:12 0
24 *287:21 *337:12 2.47727e-05
25 *3462:D *3353:S 0.000202612
26 *283:20 *287:21 0.000687088
*RES
1 *3350:ZN *287:8 9.988 
2 *287:8 *3567:I 10.14 
3 *287:8 *287:21 6.4 
4 *287:21 *3354:S 7.92 
5 *287:21 *3353:S 14.152 
*END

*D_NET *288 0.00134154
*CONN
*I *3359:B I *D gf180mcu_fd_sc_mcu7t5v0__oai21_1
*I *3358:ZN O *D gf180mcu_fd_sc_mcu7t5v0__nand2_1
*CAP
1 *3359:B 0.000322013
2 *3358:ZN 0.000322013
3 *3359:B *3358:A2 8.73421e-05
4 *3359:B *327:94 0.000441055
5 *3359:B *327:111 0
6 *3359:B *338:36 5.86002e-05
7 *3359:A1 *3359:B 7.24161e-06
8 *3468:D *3359:B 0.000103272
*RES
1 *3358:ZN *3359:B 11.964 
*END

*D_NET *289 0.000278101
*CONN
*I *3361:B I *D gf180mcu_fd_sc_mcu7t5v0__oai21_1
*I *3360:ZN O *D gf180mcu_fd_sc_mcu7t5v0__nand2_1
*CAP
1 *3361:B 0.000111646
2 *3360:ZN 0.000111646
3 *3361:B *338:62 5.48085e-05
*RES
1 *3360:ZN *3361:B 9.76 
*END

*D_NET *290 0.000219292
*CONN
*I *3363:B I *D gf180mcu_fd_sc_mcu7t5v0__aoi21_1
*I *3362:ZN O *D gf180mcu_fd_sc_mcu7t5v0__nor2_1
*CAP
1 *3363:B 0.00010579
2 *3362:ZN 0.00010579
3 *3363:A1 *3363:B 7.71175e-06
*RES
1 *3362:ZN *3363:B 9.76 
*END

*D_NET *291 0.00131685
*CONN
*I *3365:B I *D gf180mcu_fd_sc_mcu7t5v0__aoi21_1
*I *3364:ZN O *D gf180mcu_fd_sc_mcu7t5v0__nor2_1
*CAP
1 *3365:B 0.000268645
2 *3364:ZN 0.000268645
3 *3365:B *3364:A1 0.000255714
4 *3365:B *328:36 0.000258197
5 *3365:B *328:42 3.25356e-05
6 *3365:B *338:70 1.15275e-05
7 *3470:D *3365:B 0.000221585
*RES
1 *3364:ZN *3365:B 11.812 
*END

*D_NET *292 0.000655875
*CONN
*I *3385:A1 I *D gf180mcu_fd_sc_mcu7t5v0__aoi21_1
*I *3366:ZN O *D gf180mcu_fd_sc_mcu7t5v0__nand2_1
*CAP
1 *3385:A1 0.00020356
2 *3366:ZN 0.00020356
3 *3385:A1 *3389:B 0
4 *3385:A1 *3474:CLK 9.39925e-05
5 *3385:A1 *366:32 0.000154762
*RES
1 *3366:ZN *3385:A1 10.52 
*END

*D_NET *293 0.00470363
*CONN
*I *3369:B1 I *D gf180mcu_fd_sc_mcu7t5v0__oai22_1
*I *3377:A2 I *D gf180mcu_fd_sc_mcu7t5v0__aoi221_1
*I *3380:A2 I *D gf180mcu_fd_sc_mcu7t5v0__aoi221_1
*I *3367:ZN O *D gf180mcu_fd_sc_mcu7t5v0__nand4_1
*CAP
1 *3369:B1 7.7738e-05
2 *3377:A2 9.96334e-05
3 *3380:A2 0
4 *3367:ZN 0.000324987
5 *293:23 0.000263233
6 *293:16 0.000410849
7 *3369:B1 *3377:B1 0.00022245
8 *3369:B1 *3377:B2 0.000273688
9 *3369:B1 *3380:A1 3.25235e-05
10 *3369:B1 *295:12 2.6126e-05
11 *3377:A2 *3369:A2 4.85279e-06
12 *3377:A2 *3377:B1 1.28891e-05
13 *3377:A2 *3377:C 0.000197178
14 *3377:A2 *389:30 1.16164e-05
15 *293:16 *3368:A2 2.71882e-05
16 *293:16 *3375:A1 0.000596622
17 *293:16 *3375:A2 0.000406051
18 *293:16 *3380:B2 1.14422e-05
19 *293:16 *3381:A2 0.000202974
20 *293:16 *370:59 3.73535e-05
21 *293:16 *386:51 0.000135941
22 *293:23 *3369:B2 7.24161e-06
23 *293:23 *3377:B1 7.83779e-05
24 *293:23 *3377:B2 7.83779e-05
25 *293:23 *3377:C 3.22259e-05
26 *293:23 *3380:A1 0.000141529
27 *293:23 *3380:B2 1.20079e-05
28 *3379:A1 *293:16 0.000141194
29 *126:22 *3377:A2 5.43087e-05
30 *126:22 *293:16 6.17803e-05
31 *126:22 *293:23 0.000367381
32 *126:35 *293:16 0.000353874
*RES
1 *3367:ZN *293:16 18.212 
2 *293:16 *3380:A2 4.5 
3 *293:16 *293:23 1.444 
4 *293:23 *3377:A2 14.336 
5 *293:23 *3369:B1 5.716 
*END

*D_NET *294 0.00153481
*CONN
*I *3369:B2 I *D gf180mcu_fd_sc_mcu7t5v0__oai22_1
*I *3368:ZN O *D gf180mcu_fd_sc_mcu7t5v0__nand3_1
*CAP
1 *3369:B2 0.000178294
2 *3368:ZN 0.000178294
3 *3369:B2 *3368:A2 5.86883e-05
4 *3369:B2 *3376:A1 9.5126e-05
5 *3369:B2 *3378:A2 0.000369763
6 *3369:B2 *3380:A1 0.000394996
7 *3369:B2 *3380:B2 8.55327e-05
8 *3:18 *3369:B2 1.72912e-05
9 *126:22 *3369:B2 0.000149579
10 *293:23 *3369:B2 7.24161e-06
*RES
1 *3368:ZN *3369:B2 20.888 
*END

*D_NET *295 0.00159961
*CONN
*I *3382:A2 I *D gf180mcu_fd_sc_mcu7t5v0__nor2_1
*I *3370:I I *D gf180mcu_fd_sc_mcu7t5v0__clkinv_1
*I *3369:ZN O *D gf180mcu_fd_sc_mcu7t5v0__oai22_1
*CAP
1 *3382:A2 8.12337e-05
2 *3370:I 7.60321e-05
3 *3369:ZN 0.000201209
4 *295:12 0.000358475
5 *3370:I *3383:A2 8.34506e-05
6 *3370:I *300:16 0.000201948
7 *3370:I *366:16 4.49126e-05
8 *3382:A2 *3383:A2 8.73421e-05
9 *3382:A2 *3383:B1 4.50449e-05
10 *3382:A2 *300:16 0.00013201
11 *295:12 *3369:A2 8.84331e-05
12 *295:12 *3374:A2 2.0537e-05
13 *295:12 *3377:B1 7.95952e-05
14 *295:12 *3377:B2 5.23155e-05
15 *295:12 *300:16 0
16 *295:12 *332:20 1.13356e-05
17 *3369:B1 *295:12 2.6126e-05
18 *126:22 *295:12 9.61205e-06
*RES
1 *3369:ZN *295:12 15.172 
2 *295:12 *3370:I 5.64 
3 *295:12 *3382:A2 5.564 
*END

*D_NET *296 0.000442872
*CONN
*I *3376:B I *D gf180mcu_fd_sc_mcu7t5v0__oai21_1
*I *3370:ZN O *D gf180mcu_fd_sc_mcu7t5v0__clkinv_1
*CAP
1 *3376:B 0.000116002
2 *3370:ZN 0.000116002
3 *3376:B *300:16 1.91917e-06
4 *3376:B *366:12 0.000193933
5 *3376:B *366:16 1.5015e-05
*RES
1 *3370:ZN *3376:B 9.912 
*END

*D_NET *297 0.00433891
*CONN
*I *3390:A2 I *D gf180mcu_fd_sc_mcu7t5v0__xor2_1
*I *3372:A3 I *D gf180mcu_fd_sc_mcu7t5v0__nor3_1
*I *3387:A2 I *D gf180mcu_fd_sc_mcu7t5v0__aoi21_1
*I *3395:A3 I *D gf180mcu_fd_sc_mcu7t5v0__nor4_1
*I *3385:A2 I *D gf180mcu_fd_sc_mcu7t5v0__aoi21_1
*I *3371:Z O *D gf180mcu_fd_sc_mcu7t5v0__or2_1
*CAP
1 *3390:A2 1.64368e-05
2 *3372:A3 0.0001934
3 *3387:A2 0.000133432
4 *3395:A3 0.000357347
5 *3385:A2 0
6 *3371:Z 0.000200087
7 *297:43 0.000304859
8 *297:21 0.000490779
9 *297:19 0.000224742
10 *297:10 0.000329806
11 *3372:A3 *372:29 0.000120443
12 *3372:A3 *372:35 5.1289e-05
13 *3387:A2 *3389:A2 0.000376584
14 *3390:A2 *3390:A1 1.2339e-05
15 *3390:A2 *372:29 2.9378e-06
16 *3395:A3 *3389:A2 0.000255714
17 *3395:A3 *3399:A2 4.27914e-05
18 *3395:A3 *309:10 0.000270874
19 *3395:A3 *372:35 0
20 *297:10 *3366:A1 0.000137776
21 *297:10 *332:16 9.16934e-05
22 *297:10 *332:20 0.000206333
23 *297:10 *366:32 0.000137785
24 *297:10 *370:8 2.6126e-05
25 *297:19 *332:16 8.47159e-05
26 *297:43 *309:10 0
27 *297:43 *332:16 0.000130638
28 *126:50 *3395:A3 0.000139985
*RES
1 *3371:Z *297:10 10.672 
2 *297:10 *3385:A2 9 
3 *297:10 *297:19 0.836 
4 *297:19 *297:21 4.5 
5 *297:21 *3395:A3 7.92 
6 *297:21 *3387:A2 5.792 
7 *297:19 *297:43 5.488 
8 *297:43 *3372:A3 6.78 
9 *297:43 *3390:A2 4.728 
*END

*D_NET *298 0.00225172
*CONN
*I *3566:I I *D gf180mcu_fd_sc_mcu7t5v0__clkbuf_1
*I *3392:A1 I *D gf180mcu_fd_sc_mcu7t5v0__nor3_1
*I *3372:ZN O *D gf180mcu_fd_sc_mcu7t5v0__nor3_1
*CAP
1 *3566:I 0.000148124
2 *3392:A1 0
3 *3372:ZN 0.000195189
4 *298:12 0.000343313
5 *3566:I *3391:A1 3.83835e-06
6 *3566:I *3393:A1 2.37976e-05
7 *3566:I *3393:A2 0.000651617
8 *3566:I *332:16 5.30403e-05
9 *3566:I *365:44 0.000401099
10 *298:12 *3391:A1 4.59004e-05
11 *298:12 *3391:A2 0.00012033
12 *298:12 *3392:A3 9.88736e-06
13 *298:12 *309:10 5.32384e-05
14 *298:12 *365:44 5.9087e-05
15 *298:12 *372:25 3.92697e-06
16 *298:12 *372:29 0.000139333
*RES
1 *3372:ZN *298:12 15.02 
2 *298:12 *3392:A1 4.5 
3 *298:12 *3566:I 6.704 
*END

*D_NET *299 0.00113332
*CONN
*I *3377:B1 I *D gf180mcu_fd_sc_mcu7t5v0__aoi221_1
*I *3373:ZN O *D gf180mcu_fd_sc_mcu7t5v0__clkinv_1
*CAP
1 *3377:B1 0.00021478
2 *3373:ZN 0.00021478
3 *3377:B1 *3369:A2 8.54902e-05
4 *3377:B1 *3376:A1 0
5 *3377:B1 *3377:C 1.26706e-05
6 *3377:B1 *3380:A1 0.000212289
7 *3369:B1 *3377:B1 0.00022245
8 *3377:A2 *3377:B1 1.28891e-05
9 *293:23 *3377:B1 7.83779e-05
10 *295:12 *3377:B1 7.95952e-05
*RES
1 *3373:ZN *3377:B1 19.976 
*END

*D_NET *300 0.00501374
*CONN
*I *3383:B2 I *D gf180mcu_fd_sc_mcu7t5v0__aoi22_1
*I *3397:A1 I *D gf180mcu_fd_sc_mcu7t5v0__nand2_1
*I *3375:A2 I *D gf180mcu_fd_sc_mcu7t5v0__or2_1
*I *3374:ZN O *D gf180mcu_fd_sc_mcu7t5v0__nand2_1
*CAP
1 *3383:B2 9.03238e-05
2 *3397:A1 0.000197677
3 *3375:A2 0.000270258
4 *3374:ZN 0.000126362
5 *300:16 0.000890089
6 *300:10 0.000638841
7 *3375:A2 *301:8 1.08091e-05
8 *3375:A2 *365:10 5.85692e-05
9 *3375:A2 *366:12 0.000300828
10 *3383:B2 *3383:B1 0.000310828
11 *3397:A1 *3577:I 3.03414e-05
12 *3397:A1 *365:10 2.67362e-05
13 *3397:A1 *366:12 5.89191e-05
14 *3397:A1 *366:32 0.000158743
15 *300:10 *3374:A2 0.000200335
16 *300:10 *3377:B2 1.47007e-05
17 *300:10 *332:20 3.35674e-05
18 *300:10 *393:23 6.04444e-06
19 *300:16 *3373:I 0.000372137
20 *300:16 *3376:A1 7.87465e-05
21 *300:16 *3377:B2 2.69001e-05
22 *300:16 *3377:C 1.0115e-05
23 *300:16 *3382:A1 8.0352e-06
24 *300:16 *3383:A2 3.84145e-06
25 *300:16 *3383:B1 8.55242e-05
26 *300:16 *3577:I 5.1277e-05
27 *300:16 *366:12 6.80238e-06
28 *300:16 *366:16 1.15275e-05
29 *300:16 *366:32 1.58383e-05
30 *3370:I *300:16 0.000201948
31 *3376:B *300:16 1.91917e-06
32 *3382:A2 *300:16 0.00013201
33 *3396:A1 *3375:A2 0
34 *126:35 *3375:A2 0.000177092
35 *293:16 *3375:A2 0.000406051
36 *295:12 *300:16 0
*RES
1 *3374:ZN *300:10 14.792 
2 *300:10 *300:16 8.452 
3 *300:16 *3375:A2 20.66 
4 *300:16 *3397:A1 11.052 
5 *300:10 *3383:B2 5.336 
*END

*D_NET *301 0.000830581
*CONN
*I *3376:A2 I *D gf180mcu_fd_sc_mcu7t5v0__oai21_1
*I *3380:B1 I *D gf180mcu_fd_sc_mcu7t5v0__aoi221_1
*I *3375:Z O *D gf180mcu_fd_sc_mcu7t5v0__or2_1
*CAP
1 *3376:A2 8.20086e-05
2 *3380:B1 4.78506e-05
3 *3375:Z 0.000232543
4 *301:8 0.000362402
5 *3380:B1 *3377:C 2.96621e-05
6 *3380:B1 *3380:C 9.88736e-06
7 *301:8 *3380:C 9.17202e-06
8 *3375:A2 *301:8 1.08091e-05
9 *3379:A1 *301:8 2.5879e-05
10 *126:22 *301:8 2.03665e-05
*RES
1 *3375:Z *301:8 5.868 
2 *301:8 *3380:B1 4.956 
3 *301:8 *3376:A2 5.184 
*END

*D_NET *302 0.00274637
*CONN
*I *3577:I I *D gf180mcu_fd_sc_mcu7t5v0__clkbuf_2
*I *3377:C I *D gf180mcu_fd_sc_mcu7t5v0__aoi221_1
*I *3380:C I *D gf180mcu_fd_sc_mcu7t5v0__aoi221_1
*I *3376:ZN O *D gf180mcu_fd_sc_mcu7t5v0__oai21_1
*CAP
1 *3577:I 5.14164e-05
2 *3377:C 0.000159701
3 *3380:C 2.02886e-05
4 *3376:ZN 0
5 *302:10 0.000198975
6 *302:6 7.04013e-05
7 *3377:C *3376:A1 6.33531e-06
8 *3377:C *3377:B2 2.6126e-05
9 *3577:I *3376:A1 9.52854e-05
10 *3577:I *366:12 0.000206333
11 *302:10 *3376:A1 0.000514812
12 *302:10 *3380:B2 0.000269865
13 *3377:A2 *3377:C 0.000197178
14 *3377:B1 *3377:C 1.26706e-05
15 *3380:B1 *3377:C 2.96621e-05
16 *3380:B1 *3380:C 9.88736e-06
17 *3397:A1 *3577:I 3.03414e-05
18 *126:22 *3377:C 0.000490028
19 *126:22 *3380:C 8.55327e-05
20 *126:35 *3577:I 7.87465e-05
21 *126:35 *302:10 8.9996e-05
22 *293:23 *3377:C 3.22259e-05
23 *300:16 *3377:C 1.0115e-05
24 *300:16 *3577:I 5.1277e-05
25 *301:8 *3380:C 9.17202e-06
*RES
1 *3376:ZN *302:6 9 
2 *302:6 *302:10 5.792 
3 *302:10 *3380:C 4.728 
4 *302:10 *3377:C 15.324 
5 *302:6 *3577:I 10.14 
*END

*D_NET *303 0.00342039
*CONN
*I *3378:A2 I *D gf180mcu_fd_sc_mcu7t5v0__xor2_1
*I *3377:ZN O *D gf180mcu_fd_sc_mcu7t5v0__aoi221_1
*CAP
1 *3378:A2 0.000688489
2 *3377:ZN 0.000688489
3 *3378:A2 *3368:A2 0.000387765
4 *3378:A2 *3378:A1 4.50449e-05
5 *3378:A2 *3380:B2 0.000144093
6 *3378:A2 *3512:RN 0.000272068
7 *3378:A2 *3533:I 0
8 *3378:A2 *3557:I 3.02712e-05
9 *3378:A2 *343:564 3.23347e-05
10 *3378:A2 *387:22 5.06913e-05
11 *3378:A2 *387:40 4.79865e-05
12 *3378:A2 *391:8 0.000386421
13 *3369:B2 *3378:A2 0.000369763
14 *3529:I *3378:A2 0.000255452
15 *3:18 *3378:A2 2.15256e-05
16 *126:22 *3378:A2 0
*RES
1 *3377:ZN *3378:A2 25.296 
*END

*D_NET *304 0.00134194
*CONN
*I *3380:B2 I *D gf180mcu_fd_sc_mcu7t5v0__aoi221_1
*I *3379:ZN O *D gf180mcu_fd_sc_mcu7t5v0__nand2_1
*CAP
1 *3380:B2 0.000166274
2 *3379:ZN 0.000166274
3 *3380:B2 *3368:A2 1.13356e-05
4 *3380:B2 *3376:A1 0.000130987
5 *3380:B2 *3381:A2 0.000185239
6 *3369:B2 *3380:B2 8.55327e-05
7 *3378:A2 *3380:B2 0.000144093
8 *126:35 *3380:B2 0.000158886
9 *293:16 *3380:B2 1.14422e-05
10 *293:23 *3380:B2 1.20079e-05
11 *302:10 *3380:B2 0.000269865
*RES
1 *3379:ZN *3380:B2 20.584 
*END

*D_NET *305 0.00137877
*CONN
*I *3381:A2 I *D gf180mcu_fd_sc_mcu7t5v0__xor2_1
*I *3380:ZN O *D gf180mcu_fd_sc_mcu7t5v0__aoi221_1
*CAP
1 *3381:A2 0.000272998
2 *3380:ZN 0.000272998
3 *3381:A2 *3379:A2 8.55242e-05
4 *3381:A2 *386:49 0.000135498
5 *3379:A1 *3381:A2 9.65874e-05
6 *3380:B2 *3381:A2 0.000185239
7 *3529:I *3381:A2 0.000126949
8 *293:16 *3381:A2 0.000202974
*RES
1 *3380:ZN *3381:A2 12.268 
*END

*D_NET *306 0.000696029
*CONN
*I *3383:B1 I *D gf180mcu_fd_sc_mcu7t5v0__aoi22_1
*I *3382:ZN O *D gf180mcu_fd_sc_mcu7t5v0__nor2_1
*CAP
1 *3383:B1 7.3407e-05
2 *3382:ZN 7.3407e-05
3 *3383:B1 *3382:A1 1.02578e-05
4 *3383:B1 *3383:A1 9.75595e-05
5 *3383:B1 *3384:I 0
6 *3382:A2 *3383:B1 4.50449e-05
7 *3383:B2 *3383:B1 0.000310828
8 *300:16 *3383:B1 8.55242e-05
*RES
1 *3382:ZN *3383:B1 10.216 
*END

*D_NET *307 0.00082277
*CONN
*I *3384:I I *D gf180mcu_fd_sc_mcu7t5v0__clkinv_1
*I *3383:ZN O *D gf180mcu_fd_sc_mcu7t5v0__aoi22_1
*CAP
1 *3384:I 0.000360636
2 *3383:ZN 0.000360636
3 *3383:B1 *3384:I 0
4 *3473:D *3384:I 0.000101499
*RES
1 *3383:ZN *3384:I 11.432 
*END

*D_NET *308 0.00150419
*CONN
*I *3386:A2 I *D gf180mcu_fd_sc_mcu7t5v0__and2_1
*I *3387:B I *D gf180mcu_fd_sc_mcu7t5v0__aoi21_1
*I *3385:ZN O *D gf180mcu_fd_sc_mcu7t5v0__aoi21_1
*CAP
1 *3386:A2 0.000109966
2 *3387:B 5.00067e-05
3 *3385:ZN 0
4 *308:4 0.000159973
5 *3386:A2 *3474:CLK 0.000135795
6 *3387:B *3389:A1 2.6126e-05
7 *3387:B *3474:CLK 0.000364697
8 *3386:A1 *3386:A2 0
9 *3387:A1 *3386:A2 0.000531352
10 *3387:A1 *3387:B 0.000126278
*RES
1 *3385:ZN *308:4 4.5 
2 *308:4 *3387:B 5.488 
3 *308:4 *3386:A2 6.172 
*END

*D_NET *309 0.00389402
*CONN
*I *3389:A2 I *D gf180mcu_fd_sc_mcu7t5v0__oai31_1
*I *3391:A1 I *D gf180mcu_fd_sc_mcu7t5v0__nand2_1
*I *3392:A2 I *D gf180mcu_fd_sc_mcu7t5v0__nor3_1
*I *3386:Z O *D gf180mcu_fd_sc_mcu7t5v0__and2_1
*CAP
1 *3389:A2 0.000264692
2 *3391:A1 0.000333945
3 *3392:A2 0
4 *3386:Z 0
5 *309:10 0.000730021
6 *309:4 0.000660768
7 *3389:A2 *3389:A1 0.000136925
8 *3389:A2 *3389:A3 0.00014889
9 *3389:A2 *3474:CLK 1.73862e-05
10 *3391:A1 *3391:A2 5.48435e-05
11 *3391:A1 *3393:A2 2.9378e-06
12 *3391:A1 *329:324 0
13 *3391:A1 *365:44 5.34818e-06
14 *309:10 *372:25 0
15 *3387:A1 *3389:A2 0.000366087
16 *3387:A1 *309:10 0.000135135
17 *3387:A2 *3389:A2 0.000376584
18 *3395:A3 *3389:A2 0.000255714
19 *3395:A3 *309:10 0.000270874
20 *3474:D *3389:A2 3.08902e-05
21 *3566:I *3391:A1 3.83835e-06
22 *297:43 *309:10 0
23 *298:12 *3391:A1 4.59004e-05
24 *298:12 *309:10 5.32384e-05
*RES
1 *3386:Z *309:4 4.5 
2 *309:4 *309:10 7.54 
3 *309:10 *3392:A2 9 
4 *309:10 *3391:A1 10.672 
5 *309:4 *3389:A2 8.148 
*END

*D_NET *310 0.00050279
*CONN
*I *3389:A3 I *D gf180mcu_fd_sc_mcu7t5v0__oai31_1
*I *3387:ZN O *D gf180mcu_fd_sc_mcu7t5v0__aoi21_1
*CAP
1 *3389:A3 0.00017695
2 *3387:ZN 0.00017695
3 *3389:A2 *3389:A3 0.00014889
4 *3474:D *3389:A3 0
*RES
1 *3387:ZN *3389:A3 10.292 
*END

*D_NET *311 0.000509048
*CONN
*I *3389:B I *D gf180mcu_fd_sc_mcu7t5v0__oai31_1
*I *3388:ZN O *D gf180mcu_fd_sc_mcu7t5v0__nand2_1
*CAP
1 *3389:B 0.000176805
2 *3388:ZN 0.000176805
3 *3389:B *3474:CLK 0.000121594
4 *3389:B *370:8 3.38444e-05
5 *3385:A1 *3389:B 0
*RES
1 *3388:ZN *3389:B 10.292 
*END

*D_NET *312 0.00122054
*CONN
*I *3391:A2 I *D gf180mcu_fd_sc_mcu7t5v0__nand2_1
*I *3392:A3 I *D gf180mcu_fd_sc_mcu7t5v0__nor3_1
*I *3390:Z O *D gf180mcu_fd_sc_mcu7t5v0__xor2_1
*CAP
1 *3391:A2 0.000155086
2 *3392:A3 5.55962e-05
3 *3390:Z 6.93917e-05
4 *312:6 0.000280074
5 *3391:A2 *372:25 2.54607e-05
6 *3392:A3 *365:44 7.83779e-05
7 *3392:A3 *372:29 1.44832e-05
8 *312:6 *3390:A1 2.9378e-06
9 *312:6 *365:44 0.000296595
10 *312:6 *372:29 5.40519e-05
11 *3391:A1 *3391:A2 5.48435e-05
12 *3394:A1 *3391:A2 3.42922e-06
13 *298:12 *3391:A2 0.00012033
14 *298:12 *3392:A3 9.88736e-06
*RES
1 *3390:Z *312:6 5.336 
2 *312:6 *3392:A3 4.956 
3 *312:6 *3391:A2 14.488 
*END

*D_NET *313 0.000283176
*CONN
*I *3394:B1 I *D gf180mcu_fd_sc_mcu7t5v0__aoi22_1
*I *3391:ZN O *D gf180mcu_fd_sc_mcu7t5v0__nand2_1
*CAP
1 *3394:B1 0.000112861
2 *3391:ZN 0.000112861
3 *3394:B1 *3128:I 1.03097e-05
4 *3394:B1 *3393:A2 2.98535e-05
5 *3394:B1 *3394:B2 1.72912e-05
*RES
1 *3391:ZN *3394:B1 9.76 
*END

*D_NET *314 0.00118233
*CONN
*I *3393:A2 I *D gf180mcu_fd_sc_mcu7t5v0__nor2_1
*I *3392:ZN O *D gf180mcu_fd_sc_mcu7t5v0__nor3_1
*CAP
1 *3393:A2 0.00020499
2 *3392:ZN 0.00020499
3 *3393:A2 *3393:A1 8.79431e-05
4 *3391:A1 *3393:A2 2.9378e-06
5 *3394:B1 *3393:A2 2.98535e-05
6 *3566:I *3393:A2 0.000651617
*RES
1 *3392:ZN *3393:A2 11.128 
*END

*D_NET *315 0.000420313
*CONN
*I *3394:B2 I *D gf180mcu_fd_sc_mcu7t5v0__aoi22_1
*I *3393:ZN O *D gf180mcu_fd_sc_mcu7t5v0__nor2_1
*CAP
1 *3394:B2 0.000139263
2 *3393:ZN 0.000139263
3 *3394:B2 *3393:A1 0.000124497
4 *3394:B1 *3394:B2 1.72912e-05
*RES
1 *3393:ZN *3394:B2 10.064 
*END

*D_NET *316 0.00112506
*CONN
*I *3399:A2 I *D gf180mcu_fd_sc_mcu7t5v0__oai22_1
*I *3395:ZN O *D gf180mcu_fd_sc_mcu7t5v0__nor4_1
*CAP
1 *3399:A2 0.000380325
2 *3395:ZN 0.000380325
3 *3399:A2 *3360:A1 0
4 *3399:A2 *3372:A1 0
5 *3399:A2 *3399:B2 2.31627e-05
6 *3399:A2 *372:35 0
7 *3395:A3 *3399:A2 4.27914e-05
8 *3476:D *3399:A2 0.000298454
*RES
1 *3395:ZN *3399:A2 11.584 
*END

*D_NET *317 0.000477
*CONN
*I *3397:A2 I *D gf180mcu_fd_sc_mcu7t5v0__nand2_1
*I *3396:ZN O *D gf180mcu_fd_sc_mcu7t5v0__nand4_1
*CAP
1 *3397:A2 0.000129494
2 *3396:ZN 0.000129494
3 *3397:A2 *365:10 0
4 *3397:A2 *370:53 0.000187982
5 *3397:A2 *370:59 3.00299e-05
*RES
1 *3396:ZN *3397:A2 10.064 
*END

*D_NET *318 0.00055872
*CONN
*I *3398:I I *D gf180mcu_fd_sc_mcu7t5v0__clkinv_1
*I *3397:ZN O *D gf180mcu_fd_sc_mcu7t5v0__nand2_1
*CAP
1 *3398:I 0.000180067
2 *3397:ZN 0.000180067
3 *3398:I *3474:CLK 3.56141e-05
4 *3398:I *365:10 5.13352e-06
5 *3398:I *366:32 5.23469e-05
6 *3398:I *371:31 5.14419e-05
7 *3398:I *372:39 5.40492e-05
*RES
1 *3397:ZN *3398:I 19.52 
*END

*D_NET *319 0.0012382
*CONN
*I *3399:B1 I *D gf180mcu_fd_sc_mcu7t5v0__oai22_1
*I *3398:ZN O *D gf180mcu_fd_sc_mcu7t5v0__clkinv_1
*CAP
1 *3399:B1 0.000461652
2 *3398:ZN 0.000461652
3 *3399:B1 *3367:A3 0.000106165
4 *3399:B1 *3367:A4 4.82663e-05
5 *3399:B1 *3474:CLK 5.47636e-05
6 *3399:B1 *327:111 0.000105696
7 *3399:B1 *371:37 0
*RES
1 *3398:ZN *3399:B1 21.344 
*END

*D_NET *320 0.0290946
*CONN
*I *3535:I I *D gf180mcu_fd_sc_mcu7t5v0__clkbuf_16
*I *3531:I I *D gf180mcu_fd_sc_mcu7t5v0__clkbuf_16
*I *3537:I I *D gf180mcu_fd_sc_mcu7t5v0__clkbuf_16
*I *3534:I I *D gf180mcu_fd_sc_mcu7t5v0__clkbuf_16
*I *3533:I I *D gf180mcu_fd_sc_mcu7t5v0__clkbuf_16
*I *3532:I I *D gf180mcu_fd_sc_mcu7t5v0__clkbuf_16
*I *3530:I I *D gf180mcu_fd_sc_mcu7t5v0__clkbuf_16
*I *3536:I I *D gf180mcu_fd_sc_mcu7t5v0__clkbuf_16
*I *3529:Z O *D gf180mcu_fd_sc_mcu7t5v0__clkbuf_16
*CAP
1 *3535:I 0.000401086
2 *3531:I 0.000403629
3 *3537:I 0.000693528
4 *3534:I 0.00261511
5 *3533:I 0.00086391
6 *3532:I 0.000766539
7 *3530:I 0.00133938
8 *3536:I 0
9 *3529:Z 0.000148562
10 *320:69 0.00304796
11 *320:31 0.0025764
12 *320:25 0.00279448
13 *320:17 0.00156801
14 *320:7 0.000519703
15 *3530:I *3243:C 7.94759e-05
16 *3530:I *3281:A1 1.84085e-05
17 *3530:I *3281:A2 0.000101099
18 *3530:I *3511:SETN 2.74753e-05
19 *3530:I *3515:RN 0.000175258
20 *3530:I *391:16 0.000100283
21 *3531:I *3227:A2 0
22 *3531:I *374:66 0.000346697
23 *3531:I *412:23 0
24 *3532:I *3188:A1 9.17202e-06
25 *3532:I *3320:I0 0.000132714
26 *3532:I *3494:RN 1.72912e-05
27 *3532:I *391:16 3.57765e-05
28 *3532:I *403:14 4.84262e-05
29 *3532:I *408:12 0
30 *3532:I *408:20 0.000171927
31 *3533:I *3277:S0 1.13149e-05
32 *3533:I *3378:A1 0
33 *3533:I *3466:CLK 2.38455e-05
34 *3533:I *3471:CLK 9.31648e-05
35 *3533:I *3512:RN 1.79941e-05
36 *3533:I *343:564 1.0313e-05
37 *3533:I *407:8 0
38 *3534:I *3150:A1 0
39 *3534:I *3254:C2 0.000278037
40 *3534:I *3265:B2 0.000357692
41 *3534:I *3272:I1 0.000758125
42 *3534:I *3442:CLKN 0.000199776
43 *3534:I *3468:RN 0.000109515
44 *3534:I *3504:CLK 0
45 *3534:I *330:42 0.000226063
46 *3534:I *427:23 0.000257421
47 *3534:I *929:29 0
48 *3535:I *3338:I1 9.84403e-05
49 *3535:I *3463:RN 3.22374e-05
50 *3535:I *326:12 6.96806e-05
51 *3535:I *343:107 1.50855e-05
52 *3537:I *3112:I 5.66861e-05
53 *3537:I *3149:A1 5.83532e-07
54 *3537:I *3556:I 0.000270172
55 *3537:I *329:294 0
56 *3537:I *417:38 0.000344191
57 *320:7 *327:27 2.56111e-05
58 *320:17 *3465:RN 7.41459e-05
59 *320:17 *327:23 2.10093e-05
60 *320:17 *327:27 3.12712e-05
61 *320:17 *327:94 6.63508e-06
62 *320:17 *329:201 0
63 *320:25 *3273:I1 9.77285e-05
64 *320:25 *3277:S0 9.16832e-05
65 *320:25 *3356:I0 0
66 *320:25 *3357:I0 0.000195532
67 *320:25 *3465:CLK 0
68 *320:25 *3466:CLK 0
69 *320:25 *3467:CLK 0.000158878
70 *320:25 *3511:CLK 0
71 *320:25 *322:105 0
72 *320:25 *329:201 2.65844e-05
73 *320:25 *338:10 0.000269814
74 *320:25 *338:25 0.000170751
75 *320:25 *391:53 0
76 *320:31 *391:10 0.000362081
77 *320:31 *391:16 0.00107506
78 *320:69 *3160:A1 0.000181273
79 *320:69 *3467:CLK 0.000181996
80 *320:69 *3468:RN 1.04779e-05
81 *320:69 *3556:I 7.2647e-05
82 *320:69 *327:10 0.000352795
83 *320:69 *329:195 2.4706e-05
84 *3160:A2 *3534:I 0.000128373
85 *3161:A2 *3537:I 0.000183398
86 *3161:A2 *320:69 5.70962e-05
87 *3162:B *3537:I 0.000298898
88 *3164:A1 *3537:I 0
89 *3189:A2 *3532:I 0
90 *3189:A3 *3532:I 0.000136871
91 *3190:A2 *3532:I 0
92 *3226:C *3531:I 1.09109e-05
93 *3282:A2 *3530:I 3.92049e-05
94 *3337:A1 *3534:I 0.000197949
95 *3359:A1 *320:69 0.000746324
96 *3378:A2 *3533:I 0
97 *3449:D *3534:I 0.000116355
98 *3450:D *3534:I 0.000128363
99 *3466:D *320:25 8.15726e-05
100 *3466:D *320:31 1.12495e-05
101 *3467:D *320:17 5.97012e-05
102 *3471:D *3533:I 0.000140924
103 *124:10 *3534:I 0.00024695
104 *152:14 *3537:I 2.28343e-05
105 *156:8 *3537:I 1.41048e-05
106 *156:19 *3537:I 9.6887e-05
107 *175:18 *3532:I 4.22854e-06
108 *222:12 *3531:I 0.000374845
109 *256:6 *3530:I 0.000124504
110 *256:21 *3531:I 0.000209772
111 *287:21 *3535:I 0
*RES
1 *3529:Z *320:7 5.488 
2 *320:7 *3536:I 4.5 
3 *320:7 *320:17 7.008 
4 *320:17 *320:25 13.392 
5 *320:25 *320:31 16.828 
6 *320:31 *3530:I 10.96 
7 *320:31 *3532:I 9.896 
8 *320:25 *3533:I 9.896 
9 *320:17 *320:69 4.332 
10 *320:69 *3534:I 28.532 
11 *320:69 *3537:I 15.384 
12 *3530:I *3531:I 22.408 
13 *3534:I *3535:I 20.508 
*END

*D_NET *321 0.0184193
*CONN
*I *3494:CLK I *D gf180mcu_fd_sc_mcu7t5v0__dffrnq_1
*I *3477:CLK I *D gf180mcu_fd_sc_mcu7t5v0__dffrnq_1
*I *3515:CLK I *D gf180mcu_fd_sc_mcu7t5v0__dffrnq_1
*I *3425:CLK I *D gf180mcu_fd_sc_mcu7t5v0__dffrnq_1
*I *3538:I I *D gf180mcu_fd_sc_mcu7t5v0__inv_4
*I *3478:CLK I *D gf180mcu_fd_sc_mcu7t5v0__dffrnq_1
*I *3484:CLK I *D gf180mcu_fd_sc_mcu7t5v0__dffrnq_1
*I *3483:CLK I *D gf180mcu_fd_sc_mcu7t5v0__dffrnq_1
*I *3482:CLK I *D gf180mcu_fd_sc_mcu7t5v0__dffrnq_1
*I *3530:Z O *D gf180mcu_fd_sc_mcu7t5v0__clkbuf_16
*CAP
1 *3494:CLK 0.000474389
2 *3477:CLK 0.000204027
3 *3515:CLK 0
4 *3425:CLK 0.00110911
5 *3538:I 0
6 *3478:CLK 0
7 *3484:CLK 0.000462561
8 *3483:CLK 0
9 *3482:CLK 0.000146268
10 *3530:Z 0.00146647
11 *321:89 0.000799512
12 *321:82 0.000328278
13 *321:27 0.000680575
14 *321:16 0.000918403
15 *321:12 0.000947693
16 *321:6 0.000543757
17 *3425:CLK *3221:A1 0
18 *3425:CLK *3286:A1 0.000160637
19 *3425:CLK *3479:CLK 0
20 *3425:CLK *4024:I 5.76373e-06
21 *3425:CLK *4035:I 8.09693e-06
22 *3425:CLK *392:25 0.00011955
23 *3425:CLK *411:6 8.04139e-05
24 *3425:CLK *411:73 0.000312831
25 *3477:CLK *3131:I 0
26 *3477:CLK *3550:I 9.33798e-05
27 *3477:CLK *343:266 0.00119757
28 *3477:CLK *343:268 0.000834709
29 *3477:CLK *343:272 0.000705383
30 *3484:CLK *3297:A1 7.3227e-05
31 *3484:CLK *3306:A1 0
32 *3484:CLK *375:35 0.000317938
33 *3494:CLK *3178:A1 5.1289e-05
34 *3494:CLK *3178:A2 0.00011704
35 *3494:CLK *3242:A1 0.000839317
36 *3494:CLK *3316:I0 7.83779e-05
37 *3494:CLK *399:8 4.45507e-05
38 *3494:CLK *399:10 0.000140167
39 *321:6 *3285:A1 3.07734e-05
40 *321:12 *3285:A1 0.000128373
41 *321:12 *3478:RN 0.00107739
42 *321:12 *3482:RN 0.000120187
43 *321:16 *3482:RN 3.17618e-05
44 *321:82 *3242:A1 5.94067e-05
45 *321:82 *392:25 0.000725276
46 *321:89 *3242:A1 0.000422778
47 *3278:A2 *321:89 0
48 *3279:A2 *321:89 0
49 *3283:A2 *3425:CLK 1.44832e-05
50 *3285:B *3425:CLK 0
51 *3295:A3 *3477:CLK 0.000635329
52 *3296:B *3425:CLK 1.985e-05
53 *3296:B *321:6 0
54 *3296:B *321:82 0
55 *3297:A2 *3484:CLK 0.000269848
56 *3298:A1 *321:6 0
57 *3298:A1 *321:12 0
58 *3299:A2 *3484:CLK 0
59 *3299:B *3484:CLK 0.000257168
60 *3299:B *321:27 0.000123561
61 *3300:I *321:16 8.84331e-05
62 *3300:I *321:27 4.71484e-05
63 *3306:A2 *3484:CLK 0.000279416
64 *3425:D *3425:CLK 1.02578e-05
65 *3479:D *3425:CLK 0
66 *3482:D *3482:CLK 0.000149579
67 *3483:D *3484:CLK 4.90535e-05
68 *3484:D *3484:CLK 0
69 *233:12 *3477:CLK 0.000589761
70 *257:16 *3425:CLK 7.54771e-06
71 *258:8 *3425:CLK 1.2018e-05
72 *269:12 *3484:CLK 8.65627e-06
*RES
1 *3530:Z *321:6 5.488 
2 *321:6 *321:12 8.604 
3 *321:12 *321:16 8.68 
4 *321:16 *3482:CLK 5.64 
5 *321:16 *321:27 1.52 
6 *321:27 *3483:CLK 4.5 
7 *321:27 *3484:CLK 17.984 
8 *321:12 *3478:CLK 9 
9 *321:6 *3538:I 4.5 
10 *3530:Z *3425:CLK 16.676 
11 *3530:Z *321:82 6.552 
12 *321:82 *3515:CLK 4.5 
13 *321:82 *321:89 1.14 
14 *321:89 *3477:CLK 20.112 
15 *321:89 *3494:CLK 8.832 
*END

*D_NET *322 0.0161071
*CONN
*I *3465:CLK I *D gf180mcu_fd_sc_mcu7t5v0__dffrnq_1
*I *3513:CLK I *D gf180mcu_fd_sc_mcu7t5v0__dffrnq_2
*I *3511:CLK I *D gf180mcu_fd_sc_mcu7t5v0__dffsnq_1
*I *3480:CLK I *D gf180mcu_fd_sc_mcu7t5v0__dffrnq_1
*I *3422:CLK I *D gf180mcu_fd_sc_mcu7t5v0__dffrnq_1
*I *3419:CLK I *D gf180mcu_fd_sc_mcu7t5v0__dffrnq_2
*I *3423:CLK I *D gf180mcu_fd_sc_mcu7t5v0__dffrnq_1
*I *3479:CLK I *D gf180mcu_fd_sc_mcu7t5v0__dffrnq_1
*I *3424:CLK I *D gf180mcu_fd_sc_mcu7t5v0__dffrnq_1
*I *3539:I I *D gf180mcu_fd_sc_mcu7t5v0__inv_4
*I *3531:Z O *D gf180mcu_fd_sc_mcu7t5v0__clkbuf_16
*CAP
1 *3465:CLK 0.000230254
2 *3513:CLK 0.000132575
3 *3511:CLK 0.00040999
4 *3480:CLK 0.000382266
5 *3422:CLK 0
6 *3419:CLK 0.000207238
7 *3423:CLK 0.000886332
8 *3479:CLK 0.00122903
9 *3424:CLK 0
10 *3539:I 0.00011005
11 *3531:Z 0.000417916
12 *322:105 0.000744068
13 *322:103 0.000504539
14 *322:57 0.00121572
15 *322:55 0.000696945
16 *322:29 0.00154036
17 *322:23 0.00133436
18 *322:8 0.000666712
19 *3419:CLK *776:6 0
20 *3419:CLK *871:6 8.2746e-05
21 *3423:CLK *3422:D 0
22 *3423:CLK *4022:I 0
23 *3423:CLK *776:12 0
24 *3423:CLK *877:19 0
25 *3465:CLK *3357:I0 8.92063e-06
26 *3479:CLK *3424:D 2.6126e-05
27 *3480:CLK *3277:I3 0.000533725
28 *3480:CLK *3277:S0 4.27914e-05
29 *3480:CLK *3277:S1 0.000240143
30 *3480:CLK *774:23 0.000201948
31 *3480:CLK *875:16 0.00026286
32 *3511:CLK *3513:RN 5.40566e-05
33 *3511:CLK *343:264 0.000778045
34 *3513:CLK *3277:S0 0.000128373
35 *3539:I *374:31 2.67803e-05
36 *3539:I *374:66 0.000201125
37 *322:8 *374:31 0.000214589
38 *322:23 *3228:A1 5.14116e-06
39 *322:23 *3291:A1 0
40 *322:23 *414:6 0
41 *322:55 *3172:A1 0.000153077
42 *322:55 *3173:A2 3.08777e-05
43 *322:55 *3423:RN 0
44 *322:57 *3172:A1 0.000116986
45 *322:57 *871:6 0.000147313
46 *322:103 *3277:S0 6.44328e-05
47 *322:103 *3277:S1 0.000441055
48 *322:105 *3277:S0 0
49 *3226:C *3539:I 7.83779e-05
50 *3226:C *322:23 0.000483795
51 *3228:B *322:23 0.000184378
52 *3291:A2 *322:23 0
53 *3419:D *3419:CLK 2.57058e-06
54 *3425:CLK *3479:CLK 0
55 *3479:D *3479:CLK 1.5015e-05
56 *3480:D *322:105 0
57 *3513:D *3513:CLK 3.08777e-05
58 *219:17 *3539:I 8.15645e-05
59 *219:32 *3539:I 9.96056e-05
60 *219:32 *322:8 0.00021548
61 *253:14 *3480:CLK 0.000145013
62 *253:14 *3511:CLK 0.000287536
63 *253:14 *322:105 1.33951e-05
64 *320:25 *3465:CLK 0
65 *320:25 *3511:CLK 0
66 *320:25 *322:105 0
*RES
1 *3531:Z *322:8 10.596 
2 *322:8 *3539:I 10.368 
3 *322:8 *322:23 7.92 
4 *322:23 *322:29 10.9 
5 *322:29 *3424:CLK 4.5 
6 *322:29 *3479:CLK 20.416 
7 *322:23 *322:55 3.724 
8 *322:55 *322:57 1.14 
9 *322:57 *3423:CLK 19.048 
10 *322:57 *3419:CLK 6.02 
11 *322:55 *3422:CLK 4.5 
12 *3531:Z *3480:CLK 13.18 
13 *3480:CLK *322:103 10.14 
14 *322:103 *322:105 1.292 
15 *322:105 *3511:CLK 13.484 
16 *322:105 *3513:CLK 10.14 
17 *322:103 *3465:CLK 10.444 
*END

*D_NET *323 0.0245507
*CONN
*I *3490:CLK I *D gf180mcu_fd_sc_mcu7t5v0__dffrnq_1
*I *3500:CLK I *D gf180mcu_fd_sc_mcu7t5v0__dffrnq_1
*I *3495:CLK I *D gf180mcu_fd_sc_mcu7t5v0__dffrnq_1
*I *3491:CLK I *D gf180mcu_fd_sc_mcu7t5v0__dffrnq_1
*I *3496:CLK I *D gf180mcu_fd_sc_mcu7t5v0__dffrnq_1
*I *3492:CLK I *D gf180mcu_fd_sc_mcu7t5v0__dffrnq_1
*I *3501:CLK I *D gf180mcu_fd_sc_mcu7t5v0__dffrnq_1
*I *3487:CLK I *D gf180mcu_fd_sc_mcu7t5v0__dffrnq_1
*I *3489:CLK I *D gf180mcu_fd_sc_mcu7t5v0__dffrnq_1
*I *3497:CLK I *D gf180mcu_fd_sc_mcu7t5v0__dffrnq_1
*I *3493:CLK I *D gf180mcu_fd_sc_mcu7t5v0__dffrnq_1
*I *3488:CLK I *D gf180mcu_fd_sc_mcu7t5v0__dffrnq_1
*I *3485:CLK I *D gf180mcu_fd_sc_mcu7t5v0__dffrnq_1
*I *3486:CLK I *D gf180mcu_fd_sc_mcu7t5v0__dffrnq_1
*I *3532:Z O *D gf180mcu_fd_sc_mcu7t5v0__clkbuf_16
*CAP
1 *3490:CLK 0.000149472
2 *3500:CLK 0.000542551
3 *3495:CLK 0.000304886
4 *3491:CLK 0
5 *3496:CLK 0.000197791
6 *3492:CLK 0.000280039
7 *3501:CLK 0
8 *3487:CLK 0
9 *3489:CLK 0
10 *3497:CLK 0.000574625
11 *3493:CLK 0.000150343
12 *3488:CLK 0
13 *3485:CLK 0.000595449
14 *3486:CLK 0.000388778
15 *3532:Z 0.0003794
16 *323:133 0.00105768
17 *323:124 0.000268353
18 *323:104 0.00086692
19 *323:102 0.00114295
20 *323:89 0.000982055
21 *323:55 0.00104027
22 *323:39 0.00100022
23 *323:35 0.00110118
24 *323:31 0.000538159
25 *323:29 0.000259954
26 *323:27 0.000764555
27 *323:14 0.000885605
28 *323:10 0.00065036
29 *3486:CLK *3310:I1 0.000229423
30 *3486:CLK *3310:S 0.000296007
31 *3486:CLK *3555:I 1.72912e-05
32 *3486:CLK *339:12 4.58601e-06
33 *3492:CLK *3318:I1 6.57222e-06
34 *3495:CLK *3317:I0 7.83779e-05
35 *3495:CLK *3321:A1 0.000433688
36 *3495:CLK *390:96 0
37 *3500:CLK *3317:I0 0
38 *3500:CLK *3317:S 0
39 *3500:CLK *343:474 0.000225107
40 *3500:CLK *400:17 0.000442387
41 *323:10 *3311:A1 0.000168421
42 *323:10 *3499:CLK 0.000156492
43 *323:10 *339:12 0.00024136
44 *323:14 *3311:A1 0.000288951
45 *323:27 *3311:A1 1.20889e-05
46 *323:27 *3330:I1 0
47 *323:27 *339:12 0.000123888
48 *323:27 *339:23 3.7731e-05
49 *323:27 *339:25 7.88666e-05
50 *323:27 *406:37 0
51 *323:29 *339:25 2.09512e-05
52 *323:29 *339:29 2.1182e-05
53 *323:29 *406:37 0
54 *323:31 *339:29 0.000149234
55 *323:31 *398:34 0.000134113
56 *323:31 *406:37 0
57 *323:35 *3489:RN 0.00115918
58 *323:35 *339:29 9.42432e-05
59 *323:35 *398:8 0.000184382
60 *323:35 *398:19 0.000138153
61 *323:35 *398:34 9.57657e-05
62 *323:89 *3196:A1 0.000317503
63 *323:89 *406:37 6.13012e-05
64 *323:102 *3196:A1 0.00032464
65 *323:102 *3317:I1 0
66 *323:102 *406:31 1.72912e-05
67 *323:102 *406:37 6.05076e-05
68 *323:104 *3192:A1 0.000526238
69 *323:104 *3318:I1 0.000211545
70 *323:104 *3492:RN 0.000336843
71 *323:104 *343:474 0.000142917
72 *323:124 *343:474 0.000136499
73 *323:133 *343:474 0.00038563
74 *323:133 *400:17 8.15645e-05
75 *3193:A2 *323:102 9.026e-05
76 *3196:A2 *323:102 8.55242e-05
77 *3198:A3 *323:102 0.000353157
78 *3199:A1 *323:102 5.1289e-05
79 *3199:A2 *323:102 0.000626259
80 *3199:B *323:102 2.40922e-05
81 *3329:A1 *3500:CLK 0.000142224
82 *3487:D *323:89 2.6126e-05
83 *3491:D *323:102 7.45328e-07
84 *3492:D *3492:CLK 0.000716809
85 *3496:D *3496:CLK 2.57058e-06
86 *3497:D *3497:CLK 2.333e-05
87 *3499:D *323:10 0.000663513
88 *3:18 *3492:CLK 0
89 *3:18 *323:104 0
90 *188:8 *323:102 0.000182296
*RES
1 *3532:Z *323:10 13.408 
2 *323:10 *323:14 5.944 
3 *323:14 *3486:CLK 8.072 
4 *323:14 *323:27 7.388 
5 *323:27 *323:29 0.684 
6 *323:29 *323:31 1.9 
7 *323:31 *323:35 9.44 
8 *323:35 *323:39 2.432 
9 *323:39 *3485:CLK 8.148 
10 *323:39 *3488:CLK 4.5 
11 *323:35 *323:55 1.748 
12 *323:55 *3493:CLK 5.412 
13 *323:55 *3497:CLK 8.224 
14 *323:31 *3489:CLK 9 
15 *323:29 *3487:CLK 9 
16 *323:27 *323:89 6.704 
17 *323:89 *3501:CLK 4.5 
18 *323:89 *323:102 11.264 
19 *323:102 *323:104 4.788 
20 *323:104 *3492:CLK 11.812 
21 *323:104 *3496:CLK 10.14 
22 *323:102 *323:124 0.684 
23 *323:124 *3491:CLK 9 
24 *323:124 *323:133 2.052 
25 *323:133 *3495:CLK 11.204 
26 *323:133 *3500:CLK 13.408 
27 *323:10 *3490:CLK 10.444 
*END

*D_NET *324 0.0202055
*CONN
*I *3516:CLK I *D gf180mcu_fd_sc_mcu7t5v0__dffrnq_1
*I *3473:CLK I *D gf180mcu_fd_sc_mcu7t5v0__dffrnq_1
*I *3472:CLK I *D gf180mcu_fd_sc_mcu7t5v0__dffrnq_1
*I *3466:CLK I *D gf180mcu_fd_sc_mcu7t5v0__dffrnq_1
*I *3512:CLK I *D gf180mcu_fd_sc_mcu7t5v0__dffrnq_1
*I *3540:I I *D gf180mcu_fd_sc_mcu7t5v0__inv_3
*I *3517:CLK I *D gf180mcu_fd_sc_mcu7t5v0__dffrnq_1
*I *3471:CLK I *D gf180mcu_fd_sc_mcu7t5v0__dffrnq_1
*I *3514:CLK I *D gf180mcu_fd_sc_mcu7t5v0__dffrnq_1
*I *3498:CLK I *D gf180mcu_fd_sc_mcu7t5v0__dffrnq_1
*I *3499:CLK I *D gf180mcu_fd_sc_mcu7t5v0__dffrnq_1
*I *3533:Z O *D gf180mcu_fd_sc_mcu7t5v0__clkbuf_16
*CAP
1 *3516:CLK 0
2 *3473:CLK 0.00102842
3 *3472:CLK 0.000339599
4 *3466:CLK 0.000194639
5 *3512:CLK 0.000986635
6 *3540:I 0
7 *3517:CLK 0.00136474
8 *3471:CLK 0.000573455
9 *3514:CLK 0
10 *3498:CLK 0.00020023
11 *3499:CLK 0.000876937
12 *3533:Z 0.000221253
13 *324:122 0.0017938
14 *324:89 0.000534238
15 *324:56 0.00164389
16 *324:30 0.000842446
17 *324:10 0.00117891
18 *324:8 0.000561572
19 *324:4 0.000469991
20 *3466:CLK *3558:I 0
21 *3466:CLK *343:543 0
22 *3471:CLK *3325:I0 0.000211315
23 *3471:CLK *3494:RN 5.56838e-05
24 *3471:CLK *343:543 0
25 *3471:CLK *343:564 8.15726e-05
26 *3471:CLK *407:8 0.000134206
27 *3472:CLK *343:564 0
28 *3472:CLK *386:12 0.000635007
29 *3472:CLK *387:22 8.166e-05
30 *3472:CLK *391:10 0.00042949
31 *3472:CLK *391:53 0.000151728
32 *3498:CLK *3325:I1 6.79912e-06
33 *3498:CLK *403:14 0
34 *3499:CLK *3180:A1 0.000387765
35 *3499:CLK *3325:I1 4.08987e-05
36 *3499:CLK *3499:RN 5.94481e-05
37 *3499:CLK *339:12 5.25777e-05
38 *3499:CLK *343:401 5.40595e-05
39 *3499:CLK *403:14 8.5208e-05
40 *3499:CLK *403:18 0.000517099
41 *3499:CLK *408:12 0.000188422
42 *3499:CLK *408:20 0
43 *3517:CLK *3236:B 3.18265e-05
44 *3517:CLK *3517:D 0
45 *324:8 *3325:I1 2.6126e-05
46 *324:8 *3517:D 0.000154561
47 *324:10 *3325:I1 5.72229e-05
48 *324:30 *3190:A1 0
49 *324:30 *3325:I0 4.09047e-05
50 *324:30 *3325:I1 8.03759e-06
51 *324:30 *3494:RN 5.29681e-05
52 *3188:A2 *3499:CLK 0.000768915
53 *3190:A2 *324:8 0.000355531
54 *3211:A2 *3517:CLK 9.09716e-05
55 *3219:A1 *3517:CLK 4.50299e-05
56 *3219:A2 *3517:CLK 2.01323e-05
57 *3220:A1 *324:122 2.76198e-05
58 *3232:A2 *3517:CLK 0
59 *3236:A1 *3517:CLK 0.000147313
60 *3237:A1 *324:122 1.39267e-05
61 *3238:A2 *3512:CLK 2.89664e-05
62 *3247:A3 *324:122 0
63 *3247:B *324:122 0.000222721
64 *3471:D *3466:CLK 4.58601e-06
65 *3471:D *3471:CLK 1.15275e-05
66 *3471:D *3472:CLK 0.000269865
67 *3498:D *3498:CLK 7.31626e-05
68 *3512:D *3512:CLK 5.76373e-06
69 *3512:D *324:122 6.07288e-05
70 *3514:D *3512:CLK 0.000314174
71 *3516:D *324:122 0.000379962
72 *3529:I *3472:CLK 0
73 *3533:I *3466:CLK 2.38455e-05
74 *3533:I *3471:CLK 9.31648e-05
75 *185:14 *3517:CLK 0
76 *185:14 *324:8 0.000179609
77 *185:14 *324:56 0.000171918
78 *195:14 *3517:CLK 1.50723e-05
79 *195:14 *324:56 0
80 *206:6 *3517:CLK 0.000366552
81 *209:6 *3517:CLK 2.57058e-06
82 *212:14 *3517:CLK 0
83 *230:8 *324:122 0
84 *320:25 *3466:CLK 0
85 *323:10 *3499:CLK 0.000156492
*RES
1 *3533:Z *324:4 4.5 
2 *324:4 *324:8 6.856 
3 *324:8 *324:10 0.836 
4 *324:10 *3499:CLK 18.044 
5 *324:10 *3498:CLK 10.14 
6 *324:8 *324:30 1.748 
7 *324:30 *3514:CLK 9 
8 *324:30 *3471:CLK 13.864 
9 *324:4 *324:56 11.128 
10 *324:56 *3517:CLK 13.544 
11 *324:56 *3540:I 4.5 
12 *3533:Z *3512:CLK 11.052 
13 *3471:CLK *324:89 4.5 
14 *324:89 *3466:CLK 5.64 
15 *324:89 *3472:CLK 17.908 
16 *3512:CLK *324:122 18.972 
17 *324:122 *3473:CLK 19.808 
18 *324:122 *3516:CLK 4.5 
*END

*D_NET *325 0.0218707
*CONN
*I *3502:CLK I *D gf180mcu_fd_sc_mcu7t5v0__dffrnq_1
*I *3437:CLK I *D gf180mcu_fd_sc_mcu7t5v0__dffrnq_1
*I *3541:I I *D gf180mcu_fd_sc_mcu7t5v0__clkbuf_2
*I *3503:CLK I *D gf180mcu_fd_sc_mcu7t5v0__dffrnq_1
*I *3460:CLK I *D gf180mcu_fd_sc_mcu7t5v0__dffsnq_1
*I *3418:CLK I *D gf180mcu_fd_sc_mcu7t5v0__dffrnq_1
*I *3453:CLK I *D gf180mcu_fd_sc_mcu7t5v0__dffsnq_1
*I *3420:CLK I *D gf180mcu_fd_sc_mcu7t5v0__dffrnq_1
*I *3421:CLK I *D gf180mcu_fd_sc_mcu7t5v0__dffrnq_1
*I *3464:CLK I *D gf180mcu_fd_sc_mcu7t5v0__dffrnq_1
*I *3455:CLK I *D gf180mcu_fd_sc_mcu7t5v0__dffrnq_1
*I *3456:CLK I *D gf180mcu_fd_sc_mcu7t5v0__dffrnq_1
*I *3459:CLK I *D gf180mcu_fd_sc_mcu7t5v0__dffrnq_1
*I *3461:CLK I *D gf180mcu_fd_sc_mcu7t5v0__dffsnq_1
*I *3534:Z O *D gf180mcu_fd_sc_mcu7t5v0__clkbuf_16
*CAP
1 *3502:CLK 0.000306769
2 *3437:CLK 0.000222189
3 *3541:I 0.000183467
4 *3503:CLK 0
5 *3460:CLK 0.000505622
6 *3418:CLK 0
7 *3453:CLK 0
8 *3420:CLK 0
9 *3421:CLK 0.000396332
10 *3464:CLK 0
11 *3455:CLK 0
12 *3456:CLK 0.00026445
13 *3459:CLK 0.000424789
14 *3461:CLK 3.28034e-05
15 *3534:Z 0
16 *325:147 0.000528958
17 *325:89 0.00124023
18 *325:83 0.00152252
19 *325:71 0.00119266
20 *325:67 0.00101966
21 *325:65 0.000390153
22 *325:56 0.000754631
23 *325:23 0.00103827
24 *325:21 0.000808627
25 *325:12 0.00065738
26 *325:10 0.000771895
27 *325:4 0.000425901
28 *3421:CLK *3420:D 0.000128373
29 *3421:CLK *3784:I 0
30 *3421:CLK *627:16 0
31 *3437:CLK *3464:RN 0.00011703
32 *3437:CLK *343:48 2.22657e-05
33 *3437:CLK *343:61 0.000195368
34 *3437:CLK *932:25 0.000183465
35 *3456:CLK *3349:I1 4.60055e-05
36 *3456:CLK *3459:RN 6.57222e-06
37 *3456:CLK *936:10 0.000105155
38 *3459:CLK *3830:I 0.000130844
39 *3460:CLK *3265:A1 0.000732563
40 *3460:CLK *3273:I1 0
41 *3460:CLK *3351:I1 0
42 *3460:CLK *343:615 0.00013979
43 *3502:CLK *3351:S 0.000493315
44 *3502:CLK *3352:S 0
45 *3502:CLK *3464:RN 0.000244687
46 *3502:CLK *3503:RN 0.000123561
47 *3502:CLK *333:31 0
48 *3502:CLK *343:170 0.000431535
49 *3502:CLK *343:668 0.000405417
50 *3502:CLK *932:25 0.000126898
51 *3541:I *936:25 0.000224296
52 *325:10 *3343:S 0
53 *325:12 *625:14 2.57332e-05
54 *325:21 *3420:RN 0.00032755
55 *325:21 *3421:RN 0
56 *325:21 *625:14 5.18011e-05
57 *325:21 *936:25 0
58 *325:23 *3421:RN 0
59 *325:23 *627:8 1.30476e-05
60 *325:23 *627:14 1.01183e-05
61 *325:23 *936:25 0
62 *325:56 *3343:S 6.25211e-05
63 *325:56 *625:14 0.000139318
64 *325:65 *3453:SETN 6.73926e-05
65 *325:65 *379:23 9.20759e-05
66 *325:65 *379:44 2.23598e-06
67 *325:65 *625:14 0.00166442
68 *325:71 *3265:A1 0.000399191
69 *325:71 *3551:I 3.43264e-05
70 *325:71 *3552:I 0
71 *325:71 *343:193 2.97126e-05
72 *325:71 *343:600 0.000182978
73 *325:71 *343:615 0.000311338
74 *325:71 *875:8 0.000217662
75 *325:83 *3418:D 0.000321568
76 *325:83 *343:182 8.78761e-05
77 *325:83 *343:221 0
78 *325:89 *3170:A1 8.55242e-05
79 *325:89 *3419:RN 0.000441055
80 *325:89 *3420:D 1.02578e-05
81 *325:89 *3521:I 0.000338727
82 *325:89 *3688:I 0
83 *325:89 *3690:I 1.33547e-05
84 *325:89 *3693:I 1.5015e-05
85 *325:89 *430:10 1.28836e-05
86 *325:89 *532:6 0.000130627
87 *3421:D *3421:CLK 4.58601e-06
88 *3453:D *325:89 6.63508e-06
89 *3455:D *325:21 2.57058e-06
90 *3455:D *325:23 2.333e-05
91 *3459:D *3456:CLK 2.77603e-05
92 *3459:D *3459:CLK 7.02034e-05
93 *3459:D *325:23 4.13778e-05
94 *3460:D *3460:CLK 2.333e-05
95 *3461:D *325:10 3.81004e-05
*RES
1 *3534:Z *325:4 4.5 
2 *325:4 *325:10 10.596 
3 *325:10 *325:12 0.988 
4 *325:12 *3461:CLK 4.728 
5 *325:12 *325:21 3.268 
6 *325:21 *325:23 2.204 
7 *325:23 *3459:CLK 16.236 
8 *325:23 *3456:CLK 16.008 
9 *325:21 *3455:CLK 4.5 
10 *325:10 *325:56 2.584 
11 *325:56 *3464:CLK 4.5 
12 *325:56 *325:65 4.56 
13 *325:65 *325:67 4.5 
14 *325:67 *325:71 10.2 
15 *325:71 *325:83 13.864 
16 *325:83 *325:89 6.764 
17 *325:89 *3421:CLK 16.236 
18 *325:89 *3420:CLK 4.5 
19 *325:83 *3453:CLK 4.5 
20 *325:71 *3418:CLK 4.5 
21 *325:67 *3460:CLK 13.104 
22 *325:65 *3503:CLK 4.5 
23 *325:4 *3541:I 6.02 
24 *3534:Z *325:147 4.5 
25 *325:147 *3437:CLK 6.856 
26 *325:147 *3502:CLK 8.68 
*END

*D_NET *326 0.0221237
*CONN
*I *3434:CLK I *D gf180mcu_fd_sc_mcu7t5v0__dffrnq_1
*I *3435:CLK I *D gf180mcu_fd_sc_mcu7t5v0__dffrnq_1
*I *3436:CLK I *D gf180mcu_fd_sc_mcu7t5v0__dffrnq_1
*I *3510:CLK I *D gf180mcu_fd_sc_mcu7t5v0__dffrnq_1
*I *3452:CLK I *D gf180mcu_fd_sc_mcu7t5v0__dffrnq_1
*I *3542:I I *D gf180mcu_fd_sc_mcu7t5v0__inv_3
*I *3458:CLK I *D gf180mcu_fd_sc_mcu7t5v0__dffrnq_1
*I *3509:CLK I *D gf180mcu_fd_sc_mcu7t5v0__dffrnq_1
*I *3457:CLK I *D gf180mcu_fd_sc_mcu7t5v0__dffrnq_1
*I *3450:CLK I *D gf180mcu_fd_sc_mcu7t5v0__dffrnq_1
*I *3463:CLK I *D gf180mcu_fd_sc_mcu7t5v0__dffrnq_1
*I *3535:Z O *D gf180mcu_fd_sc_mcu7t5v0__clkbuf_16
*CAP
1 *3434:CLK 0.000259618
2 *3435:CLK 0.000259041
3 *3436:CLK 0.000107219
4 *3510:CLK 0
5 *3452:CLK 0.00031203
6 *3542:I 0.000138161
7 *3458:CLK 0
8 *3509:CLK 0.000417063
9 *3457:CLK 0.000344294
10 *3450:CLK 0.000523335
11 *3463:CLK 0
12 *3535:Z 0.00036626
13 *326:114 0.00100528
14 *326:103 0.00107701
15 *326:90 0.000849427
16 *326:42 0.000892531
17 *326:38 0.000642115
18 *326:16 0.00118145
19 *326:12 0.000644028
20 *326:4 0.000670725
21 *3434:CLK *3240:A3 2.65777e-05
22 *3434:CLK *3434:D 4.19077e-05
23 *3435:CLK *3434:D 0.000101731
24 *3435:CLK *3435:D 1.5015e-05
25 *3435:CLK *340:27 0
26 *3436:CLK *3333:A1 0
27 *3436:CLK *351:24 0.000293882
28 *3436:CLK *949:12 0.000152762
29 *3436:CLK *949:22 1.00209e-05
30 *3450:CLK *3352:I0 0
31 *3450:CLK *3463:RN 0.000539294
32 *3450:CLK *343:46 0.001023
33 *3450:CLK *343:107 0.000447616
34 *3457:CLK *3349:I0 0.00140209
35 *3457:CLK *343:29 0
36 *3509:CLK *3349:I0 0.00150857
37 *3509:CLK *343:23 0
38 *3509:CLK *343:29 0
39 *3509:CLK *934:12 0.000143649
40 *3509:CLK *962:12 0
41 *3542:I *3272:I0 3.47749e-05
42 *3542:I *421:6 0.000400645
43 *3542:I *421:22 4.98138e-05
44 *326:12 *3463:RN 0.000302021
45 *326:16 *3272:I0 1.34616e-05
46 *326:16 *421:6 0.00020108
47 *326:38 *934:12 1.53727e-05
48 *326:38 *934:29 0.000125038
49 *326:42 *3347:I0 7.57844e-05
50 *326:42 *3457:RN 8.7332e-05
51 *326:90 *3263:B2 7.54771e-06
52 *326:90 *3452:RN 0.000787074
53 *326:90 *329:27 0.000895962
54 *326:90 *329:31 8.8425e-05
55 *326:90 *329:42 0
56 *326:90 *931:12 6.31119e-05
57 *326:103 *3441:CLK 7.83779e-05
58 *326:103 *3545:I 0
59 *326:103 *329:27 0.000120187
60 *326:103 *351:24 0.00062644
61 *326:103 *930:10 0.000300836
62 *326:103 *949:12 0.000397671
63 *326:114 *3240:A3 0.000372089
64 *326:114 *949:22 1.31022e-05
65 *3240:A2 *3436:CLK 7.18942e-06
66 *3334:A1 *326:103 0
67 *3341:A2 *3452:CLK 0.000239669
68 *3341:A2 *326:12 3.73627e-05
69 *3342:A1 *3452:CLK 1.91917e-06
70 *3347:S *326:38 0
71 *3452:D *3452:CLK 5.27013e-05
72 *3463:D *326:38 0.00032464
73 *3535:I *326:12 6.96806e-05
74 *3561:I *3434:CLK 0.000114133
75 *3561:I *326:114 1.63721e-05
76 *3570:I *326:90 8.22324e-05
77 *41:12 *326:90 0
78 *41:12 *326:103 0
79 *139:8 *3434:CLK 0
80 *231:10 *326:114 0.000509034
81 *231:16 *326:114 3.83192e-05
82 *232:10 *326:103 0.000156311
83 *283:20 *3452:CLK 2.23385e-05
84 *283:20 *326:12 0
85 *287:21 *326:12 0
*RES
1 *3535:Z *326:4 4.5 
2 *326:4 *326:12 12.344 
3 *326:12 *326:16 1.064 
4 *326:16 *3463:CLK 4.5 
5 *326:16 *3450:CLK 18.592 
6 *326:16 *326:38 3.724 
7 *326:38 *326:42 5.64 
8 *326:42 *3457:CLK 12.572 
9 *326:42 *3509:CLK 14.092 
10 *326:38 *3458:CLK 4.5 
11 *326:12 *3542:I 5.944 
12 *326:4 *3452:CLK 6.856 
13 *3535:Z *326:90 13.408 
14 *326:90 *3510:CLK 9 
15 *326:90 *326:103 9.972 
16 *326:103 *3436:CLK 6.096 
17 *326:103 *326:114 9.44 
18 *326:114 *3435:CLK 10.748 
19 *326:114 *3434:CLK 10.976 
*END

*D_NET *327 0.0181749
*CONN
*I *3504:CLK I *D gf180mcu_fd_sc_mcu7t5v0__dffrnq_1
*I *3474:CLK I *D gf180mcu_fd_sc_mcu7t5v0__dffrnq_1
*I *3476:CLK I *D gf180mcu_fd_sc_mcu7t5v0__dffrnq_1
*I *3468:CLK I *D gf180mcu_fd_sc_mcu7t5v0__dffrnq_1
*I *3543:I I *D gf180mcu_fd_sc_mcu7t5v0__inv_2
*I *3518:CLK I *D gf180mcu_fd_sc_mcu7t5v0__dffrnq_1
*I *3449:CLK I *D gf180mcu_fd_sc_mcu7t5v0__dffrnq_1
*I *3520:CLK I *D gf180mcu_fd_sc_mcu7t5v0__dffrnq_1
*I *3454:CLK I *D gf180mcu_fd_sc_mcu7t5v0__dffsnq_1
*I *3481:CLK I *D gf180mcu_fd_sc_mcu7t5v0__dffrnq_1
*I *3519:CLK I *D gf180mcu_fd_sc_mcu7t5v0__dffrnq_1
*I *3467:CLK I *D gf180mcu_fd_sc_mcu7t5v0__dffrnq_1
*I *3536:Z O *D gf180mcu_fd_sc_mcu7t5v0__clkbuf_16
*CAP
1 *3504:CLK 0.00017603
2 *3474:CLK 0.000798842
3 *3476:CLK 0
4 *3468:CLK 7.40352e-05
5 *3543:I 0
6 *3518:CLK 0
7 *3449:CLK 0.000227608
8 *3520:CLK 0
9 *3454:CLK 0
10 *3481:CLK 6.94921e-05
11 *3519:CLK 5.40247e-05
12 *3467:CLK 4.94194e-05
13 *3536:Z 0.00044742
14 *327:111 0.00173241
15 *327:94 0.00129378
16 *327:71 0.0003366
17 *327:39 0.000355051
18 *327:33 0.000317396
19 *327:31 0.000533458
20 *327:27 0.00108786
21 *327:23 0.000733915
22 *327:21 0.000488816
23 *327:10 0.000320809
24 *3449:CLK *3272:I1 6.44448e-05
25 *3449:CLK *3520:RN 4.97386e-06
26 *3467:CLK *329:195 0.000247494
27 *3467:CLK *329:201 0.000104569
28 *3468:CLK *338:47 0
29 *3474:CLK *3367:A4 0
30 *3474:CLK *3389:A1 0.000281255
31 *3474:CLK *3399:B2 5.77353e-05
32 *3474:CLK *332:16 3.42838e-05
33 *3474:CLK *366:32 4.59469e-05
34 *3474:CLK *370:8 0
35 *3474:CLK *371:31 0
36 *3481:CLK *3277:I1 0.00011702
37 *3481:CLK *3519:D 0.000431526
38 *3504:CLK *3150:A1 0
39 *3504:CLK *3254:C2 2.22657e-05
40 *3519:CLK *374:31 4.04248e-05
41 *3519:CLK *379:44 0.000260701
42 *327:10 *3160:A1 4.58601e-06
43 *327:10 *3272:I1 0.000255714
44 *327:10 *329:191 0.000184378
45 *327:10 *329:195 0.000341606
46 *327:31 *3518:D 0.000230028
47 *327:31 *426:10 0
48 *327:33 *3273:I1 0.000236747
49 *327:33 *3275:A2 0.000307974
50 *327:33 *3277:I0 0.000433917
51 *327:33 *428:8 0.000336482
52 *327:39 *3275:A2 0.000424397
53 *327:39 *3344:A2 0.000112956
54 *327:39 *374:25 0
55 *327:39 *374:31 7.3535e-05
56 *327:39 *379:44 0.000680481
57 *327:39 *428:8 0.000424397
58 *327:39 *625:20 0
59 *327:71 *3518:D 1.97166e-05
60 *327:71 *3520:RN 0.000399191
61 *327:111 *3399:B2 6.58185e-05
62 *327:111 *338:47 0
63 *3160:A2 *327:10 1.34535e-05
64 *3337:B *3449:CLK 0
65 *3359:A1 *3468:CLK 0
66 *3359:A1 *327:94 2.71665e-05
67 *3359:A1 *327:111 0
68 *3359:B *327:94 0.000441055
69 *3359:B *327:111 0
70 *3385:A1 *3474:CLK 9.39925e-05
71 *3386:A1 *3474:CLK 3.00299e-05
72 *3386:A2 *3474:CLK 0.000135795
73 *3387:A1 *3474:CLK 7.24161e-06
74 *3387:B *3474:CLK 0.000364697
75 *3389:A2 *3474:CLK 1.73862e-05
76 *3389:B *3474:CLK 0.000121594
77 *3398:I *3474:CLK 3.56141e-05
78 *3399:B1 *3474:CLK 5.47636e-05
79 *3399:B1 *327:111 0.000105696
80 *3467:D *327:94 0
81 *3468:D *327:94 9.88736e-06
82 *3468:D *327:111 5.67762e-05
83 *3474:D *3474:CLK 0.000116355
84 *3534:I *3504:CLK 0
85 *126:43 *3474:CLK 5.48978e-05
86 *126:50 *3474:CLK 0.000368747
87 *320:7 *327:27 2.56111e-05
88 *320:17 *327:23 2.10093e-05
89 *320:17 *327:27 3.12712e-05
90 *320:17 *327:94 6.63508e-06
91 *320:25 *3467:CLK 0.000158878
92 *320:69 *3467:CLK 0.000181996
93 *320:69 *327:10 0.000352795
*RES
1 *3536:Z *327:10 12.8 
2 *327:10 *3467:CLK 10.748 
3 *327:10 *327:21 4.5 
4 *327:21 *327:23 1.14 
5 *327:23 *327:27 7.768 
6 *327:27 *327:31 8.224 
7 *327:31 *327:33 2.204 
8 *327:33 *327:39 8.3 
9 *327:39 *3519:CLK 9.684 
10 *327:39 *3481:CLK 10.14 
11 *327:33 *3454:CLK 4.5 
12 *327:31 *3520:CLK 4.5 
13 *327:27 *327:71 5.792 
14 *327:71 *3449:CLK 5.868 
15 *327:71 *3518:CLK 4.5 
16 *327:23 *3543:I 4.5 
17 *327:21 *327:94 6.704 
18 *327:94 *3468:CLK 9.38 
19 *327:94 *327:111 10.352 
20 *327:111 *3476:CLK 4.5 
21 *327:111 *3474:CLK 12.328 
22 *3536:Z *3504:CLK 9.988 
*END

*D_NET *328 0.0205126
*CONN
*I *3508:CLK I *D gf180mcu_fd_sc_mcu7t5v0__dffrnq_1
*I *3507:CLK I *D gf180mcu_fd_sc_mcu7t5v0__dffrnq_1
*I *3506:CLK I *D gf180mcu_fd_sc_mcu7t5v0__dffrnq_1
*I *3505:CLK I *D gf180mcu_fd_sc_mcu7t5v0__dffrnq_1
*I *3475:CLK I *D gf180mcu_fd_sc_mcu7t5v0__dffrnq_1
*I *3469:CLK I *D gf180mcu_fd_sc_mcu7t5v0__dffrnq_1
*I *3470:CLK I *D gf180mcu_fd_sc_mcu7t5v0__dffrnq_1
*I *3451:CLK I *D gf180mcu_fd_sc_mcu7t5v0__dffrnq_1
*I *3462:CLK I *D gf180mcu_fd_sc_mcu7t5v0__dffsnq_1
*I *3544:I I *D gf180mcu_fd_sc_mcu7t5v0__inv_4
*I *3537:Z O *D gf180mcu_fd_sc_mcu7t5v0__clkbuf_16
*CAP
1 *3508:CLK 5.69029e-05
2 *3507:CLK 0
3 *3506:CLK 0
4 *3505:CLK 0.00022104
5 *3475:CLK 0.00072164
6 *3469:CLK 0
7 *3470:CLK 0
8 *3451:CLK 3.28034e-05
9 *3462:CLK 0.000272467
10 *3544:I 0
11 *3537:Z 0.000815592
12 *328:103 0.00068806
13 *328:97 0.000789421
14 *328:87 0.000379303
15 *328:51 0.000682283
16 *328:42 0.00101112
17 *328:36 0.00108688
18 *328:18 0.000795963
19 *328:12 0.00188042
20 *3462:CLK *3339:A1 0.000211844
21 *3462:CLK *3548:I 0.000255714
22 *3462:CLK *329:275 2.22758e-05
23 *3462:CLK *417:27 7.22665e-05
24 *3462:CLK *934:29 0.000777537
25 *3475:CLK *3362:A2 4.3922e-05
26 *3475:CLK *382:14 1.01183e-05
27 *3505:CLK *3353:I1 0
28 *3505:CLK *3451:RN 0.000431526
29 *3505:CLK *3506:D 0.000514812
30 *3505:CLK *418:23 3.40956e-05
31 *328:12 *329:294 8.52505e-06
32 *328:12 *329:303 0.000129572
33 *328:12 *382:14 5.73975e-05
34 *328:12 *383:8 0.000307974
35 *328:18 *3469:RN 0.000279004
36 *328:18 *329:307 0.00127938
37 *328:36 *3364:A1 7.24795e-05
38 *328:36 *3560:I 0
39 *328:36 *338:70 6.26305e-05
40 *328:36 *338:79 2.98579e-05
41 *328:42 *338:70 8.55327e-05
42 *328:42 *417:27 0.000209639
43 *328:42 *417:38 0.000104697
44 *328:51 *329:275 0.000177902
45 *328:51 *329:294 2.61529e-05
46 *328:51 *417:27 0.000311362
47 *328:97 *3169:A1 0.000487095
48 *328:97 *3331:A1 0.000355531
49 *328:103 *3169:A1 0.000376089
50 *328:103 *3254:A1 0.000718147
51 *328:103 *3331:A1 0.000147313
52 *328:103 *3506:D 0.000174571
53 *328:103 *329:61 0
54 *328:103 *329:72 5.59457e-05
55 *3148:I *328:42 0
56 *3149:A2 *328:42 0
57 *3153:A1 *328:42 0.000285208
58 *3153:A2 *328:42 0.000251848
59 *3153:B *328:42 3.9202e-05
60 *3154:A1 *328:12 1.3758e-05
61 *3157:A2 *328:12 8.54072e-05
62 *3157:B *328:12 5.88975e-06
63 *3158:A3 *328:97 0
64 *3162:A2 *328:42 9.28683e-05
65 *3164:A1 *328:42 5.5715e-05
66 *3166:B *328:12 0.00015399
67 *3168:A2 *3508:CLK 0.000106097
68 *3168:A2 *328:97 0.000121112
69 *3353:S *3462:CLK 0.000829789
70 *3365:A1 *328:36 3.43949e-05
71 *3365:B *328:36 0.000258197
72 *3365:B *328:42 3.25356e-05
73 *3469:D *328:36 3.18897e-05
74 *3470:D *328:36 9.67997e-05
75 *3508:D *3508:CLK 0.000179609
76 *3508:D *328:97 0.000207557
77 *152:14 *328:42 3.42838e-05
78 *157:12 *328:42 1.24512e-05
79 *158:8 *328:12 0.000198036
80 *159:10 *328:12 0.000121193
*RES
1 *3537:Z *328:12 11.34 
2 *328:12 *328:18 12.876 
3 *328:18 *328:36 12.572 
4 *328:36 *328:42 5.7 
5 *328:42 *3544:I 4.5 
6 *328:42 *328:51 3.496 
7 *328:51 *3462:CLK 8.832 
8 *328:51 *3451:CLK 4.728 
9 *328:36 *3470:CLK 4.5 
10 *328:18 *3469:CLK 4.5 
11 *328:12 *3475:CLK 8.832 
12 *3537:Z *328:87 4.5 
13 *328:87 *328:97 4.028 
14 *328:97 *328:103 9.516 
15 *328:103 *3505:CLK 11.432 
16 *328:103 *3506:CLK 9 
17 *328:97 *3507:CLK 4.5 
18 *328:87 *3508:CLK 5.488 
*END

*D_NET *329 0.0577964
*CONN
*I *3469:RN I *D gf180mcu_fd_sc_mcu7t5v0__dffrnq_1
*I *3474:RN I *D gf180mcu_fd_sc_mcu7t5v0__dffrnq_1
*I *3473:RN I *D gf180mcu_fd_sc_mcu7t5v0__dffrnq_1
*I *3475:RN I *D gf180mcu_fd_sc_mcu7t5v0__dffrnq_1
*I *3476:RN I *D gf180mcu_fd_sc_mcu7t5v0__dffrnq_1
*I *3470:RN I *D gf180mcu_fd_sc_mcu7t5v0__dffrnq_1
*I *3504:RN I *D gf180mcu_fd_sc_mcu7t5v0__dffrnq_1
*I *3449:RN I *D gf180mcu_fd_sc_mcu7t5v0__dffrnq_1
*I *3518:RN I *D gf180mcu_fd_sc_mcu7t5v0__dffrnq_1
*I *3467:RN I *D gf180mcu_fd_sc_mcu7t5v0__dffrnq_1
*I *3468:RN I *D gf180mcu_fd_sc_mcu7t5v0__dffrnq_1
*I *3465:RN I *D gf180mcu_fd_sc_mcu7t5v0__dffrnq_1
*I *3472:RN I *D gf180mcu_fd_sc_mcu7t5v0__dffrnq_1
*I *3471:RN I *D gf180mcu_fd_sc_mcu7t5v0__dffrnq_1
*I *3466:RN I *D gf180mcu_fd_sc_mcu7t5v0__dffrnq_1
*I *3520:RN I *D gf180mcu_fd_sc_mcu7t5v0__dffrnq_1
*I *3575:I I *D gf180mcu_fd_sc_mcu7t5v0__buf_20
*I *3434:RN I *D gf180mcu_fd_sc_mcu7t5v0__dffrnq_1
*I *3436:RN I *D gf180mcu_fd_sc_mcu7t5v0__dffrnq_1
*I *3435:RN I *D gf180mcu_fd_sc_mcu7t5v0__dffrnq_1
*I *3452:RN I *D gf180mcu_fd_sc_mcu7t5v0__dffrnq_1
*I *3451:RN I *D gf180mcu_fd_sc_mcu7t5v0__dffrnq_1
*I *3508:RN I *D gf180mcu_fd_sc_mcu7t5v0__dffrnq_1
*I *3507:RN I *D gf180mcu_fd_sc_mcu7t5v0__dffrnq_1
*I *3506:RN I *D gf180mcu_fd_sc_mcu7t5v0__dffrnq_1
*I *3505:RN I *D gf180mcu_fd_sc_mcu7t5v0__dffrnq_1
*I *3462:SETN I *D gf180mcu_fd_sc_mcu7t5v0__dffsnq_1
*I *3510:RN I *D gf180mcu_fd_sc_mcu7t5v0__dffrnq_1
*I *3509:RN I *D gf180mcu_fd_sc_mcu7t5v0__dffrnq_1
*I *3561:Z O *D gf180mcu_fd_sc_mcu7t5v0__buf_8
*CAP
1 *3469:RN 5.37043e-05
2 *3474:RN 0.000282119
3 *3473:RN 0.000902005
4 *3475:RN 0
5 *3476:RN 0.000224105
6 *3470:RN 0
7 *3504:RN 0
8 *3449:RN 0.00014011
9 *3518:RN 2.79535e-05
10 *3467:RN 0
11 *3468:RN 0.000442978
12 *3465:RN 7.91053e-05
13 *3472:RN 0.000346881
14 *3471:RN 9.11437e-05
15 *3466:RN 0
16 *3520:RN 0.000135833
17 *3575:I 0.000173035
18 *3434:RN 0
19 *3436:RN 0.000146153
20 *3435:RN 0
21 *3452:RN 0.000300366
22 *3451:RN 0.000402262
23 *3508:RN 0.000727617
24 *3507:RN 0
25 *3506:RN 0
26 *3505:RN 0
27 *3462:SETN 9.0983e-05
28 *3510:RN 0
29 *3509:RN 5.29124e-05
30 *3561:Z 0.000587416
31 *329:335 0.00199756
32 *329:324 0.00131995
33 *329:307 0.000958969
34 *329:303 0.000626783
35 *329:294 0.00166504
36 *329:275 0.00151082
37 *329:207 0.000387288
38 *329:201 0.000821177
39 *329:195 0.000505659
40 *329:193 0.000691381
41 *329:191 0.000220103
42 *329:174 0.000705849
43 *329:172 0.000430294
44 *329:170 0.000439474
45 *329:168 0.000611623
46 *329:129 0.000329307
47 *329:85 0.00151705
48 *329:72 0.0011977
49 *329:61 0.000724939
50 *329:55 0.000853136
51 *329:42 0.00205742
52 *329:31 0.00176675
53 *329:27 0.000685763
54 *329:14 0.000593374
55 *329:10 0.00049498
56 *3436:RN *3240:A3 0.00069853
57 *3436:RN *340:27 7.41459e-05
58 *3436:RN *949:22 0.000443978
59 *3449:RN *3150:A1 9.56442e-06
60 *3449:RN *420:12 3.82027e-05
61 *3451:RN *3262:A1 0.000176424
62 *3451:RN *3353:I1 0
63 *3451:RN *3505:D 3.73627e-05
64 *3451:RN *418:23 9.88736e-06
65 *3452:RN *3253:A1 0.000341281
66 *3452:RN *3263:A1 1.1971e-05
67 *3452:RN *930:25 0
68 *3452:RN *931:12 0.000379283
69 *3465:RN *3356:I0 7.74243e-06
70 *3468:RN *3149:A1 6.17803e-05
71 *3468:RN *3150:A1 2.00862e-05
72 *3468:RN *3160:A1 0.000188422
73 *3468:RN *3556:I 0.000110995
74 *3468:RN *381:8 4.60244e-05
75 *3468:RN *421:68 0.000412495
76 *3471:RN *391:53 0
77 *3472:RN *3356:I1 0
78 *3472:RN *3358:A2 0
79 *3472:RN *338:36 5.67782e-05
80 *3473:RN *371:10 0.000308823
81 *3473:RN *371:16 4.19396e-05
82 *3474:RN *371:10 0
83 *3476:RN *3372:A1 0
84 *3476:RN *3560:I 0.000157224
85 *3476:RN *373:8 0.000150656
86 *3508:RN *3167:C 4.79898e-05
87 *3518:RN *3150:A1 8.81341e-06
88 *3520:RN *3518:D 8.05328e-05
89 *3520:RN *418:8 0.000387757
90 *3575:I *340:27 0.000741951
91 *329:10 *3545:I 0.000379274
92 *329:14 *930:10 0.000206029
93 *329:27 *351:24 1.65795e-06
94 *329:31 *931:12 0.000194693
95 *329:31 *935:10 6.04444e-06
96 *329:42 *3263:B2 5.30492e-05
97 *329:42 *337:12 0.000920146
98 *329:42 *928:8 2.22758e-05
99 *329:55 *3169:A1 2.9378e-06
100 *329:55 *3262:A1 9.17202e-06
101 *329:55 *3353:I1 0
102 *329:55 *3505:D 9.39206e-05
103 *329:55 *419:6 2.58957e-05
104 *329:61 *3169:A1 8.51843e-05
105 *329:61 *3268:A1 0.00113405
106 *329:61 *3506:D 0
107 *329:72 *3254:A1 0.000609738
108 *329:72 *939:10 0
109 *329:85 *939:10 0
110 *329:129 *3333:A1 0
111 *329:129 *3545:I 1.94446e-05
112 *329:168 *3262:A1 6.99958e-05
113 *329:168 *418:23 0.00149714
114 *329:170 *3504:D 0
115 *329:170 *418:8 0.000789242
116 *329:170 *418:23 0.000151957
117 *329:172 *3504:D 0
118 *329:172 *418:8 0.000105286
119 *329:174 *3504:D 0
120 *329:174 *418:8 0.00135685
121 *329:174 *420:18 0
122 *329:191 *3272:I1 0.00102856
123 *329:195 *3272:I1 0
124 *329:195 *3356:I0 0.000122
125 *329:201 *3356:I0 0.000723293
126 *329:201 *338:25 4.97712e-06
127 *329:201 *338:36 2.40328e-06
128 *329:207 *3356:I1 0
129 *329:207 *338:10 0.000478097
130 *329:207 *338:25 0.000183642
131 *329:207 *386:12 0
132 *329:294 *3147:A1 0.000237878
133 *329:294 *3147:A2 2.01934e-05
134 *329:294 *3163:B 0
135 *329:294 *3262:A1 6.21666e-05
136 *329:294 *3546:I 0.000632245
137 *329:294 *422:12 6.04444e-06
138 *329:307 *3560:I 0.00101614
139 *329:324 *3127:I 0.00032464
140 *329:324 *3128:I 0.000104176
141 *329:324 *338:79 0.000796594
142 *329:324 *372:25 9.88736e-06
143 *329:335 *371:10 6.64109e-05
144 *329:335 *372:25 3.83835e-06
145 *3146:A2 *329:294 3.13605e-05
146 *3152:A1 *3468:RN 7.93657e-06
147 *3154:A1 *329:294 4.97712e-06
148 *3160:A2 *3468:RN 0
149 *3160:A2 *329:191 0.000559034
150 *3166:A1 *329:294 5.14116e-06
151 *3166:A2 *329:294 0
152 *3167:A2 *329:294 9.58084e-05
153 *3240:A2 *3436:RN 1.20889e-05
154 *3260:B1 *329:42 9.8129e-05
155 *3262:B *329:55 0.000241522
156 *3264:B1 *329:42 0
157 *3264:B2 *329:42 0
158 *3270:A2 *329:85 0
159 *3332:S *329:27 2.40328e-06
160 *3334:A1 *329:27 0.000779927
161 *3334:B *3509:RN 4.63008e-05
162 *3334:B *329:14 0.000119313
163 *3334:B *329:27 2.22758e-05
164 *3337:A1 *329:191 0.000448201
165 *3342:B *329:42 0
166 *3363:A1 *329:324 0
167 *3391:A1 *329:324 0
168 *3394:A1 *329:324 2.93893e-05
169 *3394:A1 *329:335 2.6126e-05
170 *3444:RN *329:42 2.84711e-05
171 *3449:CLK *3520:RN 4.97386e-06
172 *3451:D *329:168 0.000469567
173 *3462:CLK *329:275 2.22758e-05
174 *3467:D *329:201 3.50062e-05
175 *3467:CLK *329:195 0.000247494
176 *3467:CLK *329:201 0.000104569
177 *3505:CLK *3451:RN 0.000431526
178 *3510:D *329:27 0.000431412
179 *3529:I *3471:RN 0.000111867
180 *3534:I *3468:RN 0.000109515
181 *3537:I *329:294 0
182 *3570:I *3452:RN 5.29053e-05
183 *124:10 *3468:RN 8.47086e-06
184 *125:10 *329:174 0
185 *139:8 *3436:RN 5.27305e-05
186 *144:33 *329:42 0
187 *150:8 *329:294 0.000246496
188 *157:44 *329:294 0.000147305
189 *158:8 *329:294 4.72445e-05
190 *231:10 *329:10 0
191 *231:10 *329:14 0
192 *231:10 *329:129 5.21053e-05
193 *231:16 *3509:RN 8.95196e-05
194 *231:16 *329:14 0
195 *231:16 *329:27 3.00299e-05
196 *232:10 *329:14 0
197 *232:10 *329:27 8.621e-05
198 *232:10 *329:31 5.86602e-05
199 *238:52 *3462:SETN 0.000138436
200 *239:27 *329:72 0
201 *239:27 *329:85 0
202 *240:10 *3452:RN 3.83835e-06
203 *240:29 *3452:RN 0.000248576
204 *241:19 *3452:RN 2.88224e-05
205 *247:10 *329:42 0.000125025
206 *247:10 *329:55 1.7295e-05
207 *320:17 *3465:RN 7.41459e-05
208 *320:17 *329:201 0
209 *320:25 *329:201 2.65844e-05
210 *320:69 *3468:RN 1.04779e-05
211 *320:69 *329:195 2.4706e-05
212 *326:90 *3452:RN 0.000787074
213 *326:90 *329:27 0.000895962
214 *326:90 *329:31 8.8425e-05
215 *326:90 *329:42 0
216 *326:103 *329:27 0.000120187
217 *327:10 *329:191 0.000184378
218 *327:10 *329:195 0.000341606
219 *327:71 *3520:RN 0.000399191
220 *328:12 *329:294 8.52505e-06
221 *328:12 *329:303 0.000129572
222 *328:18 *3469:RN 0.000279004
223 *328:18 *329:307 0.00127938
224 *328:51 *329:275 0.000177902
225 *328:51 *329:294 2.61529e-05
226 *328:103 *329:61 0
227 *328:103 *329:72 5.59457e-05
*RES
1 *3561:Z *329:10 10.824 
2 *329:10 *329:14 6.704 
3 *329:14 *3509:RN 5.032 
4 *329:14 *329:27 9.364 
5 *329:27 *329:31 6.096 
6 *329:31 *3510:RN 4.5 
7 *329:31 *329:42 11.172 
8 *329:42 *3462:SETN 14.488 
9 *329:42 *329:55 2.052 
10 *329:55 *329:61 12.572 
11 *329:61 *3505:RN 4.5 
12 *329:61 *329:72 7.692 
13 *329:72 *3506:RN 9 
14 *329:72 *329:85 9.516 
15 *329:85 *3507:RN 4.5 
16 *329:85 *3508:RN 8.832 
17 *329:55 *3451:RN 6.78 
18 *329:27 *3452:RN 13.18 
19 *329:10 *3435:RN 9 
20 *3561:Z *329:129 5.64 
21 *329:129 *3436:RN 15.78 
22 *329:129 *3434:RN 4.5 
23 *3561:Z *3575:I 10.9 
24 *3451:RN *329:168 12.724 
25 *329:168 *329:170 2.356 
26 *329:170 *329:172 0.38 
27 *329:172 *329:174 3.572 
28 *329:174 *3520:RN 10.976 
29 *329:174 *329:191 8.756 
30 *329:191 *329:193 4.5 
31 *329:193 *329:195 3.268 
32 *329:195 *329:201 6.932 
33 *329:201 *329:207 12.268 
34 *329:207 *3466:RN 4.5 
35 *329:207 *3471:RN 5.184 
36 *329:201 *3472:RN 6.704 
37 *329:195 *3465:RN 9.532 
38 *329:193 *3468:RN 12.952 
39 *329:191 *3467:RN 4.5 
40 *329:172 *3518:RN 9.228 
41 *329:170 *3449:RN 9.912 
42 *329:168 *329:275 6.096 
43 *329:275 *3504:RN 4.5 
44 *329:275 *329:294 19.108 
45 *329:294 *3470:RN 4.5 
46 *329:294 *329:303 6.856 
47 *329:303 *329:307 4.256 
48 *329:307 *3476:RN 10.976 
49 *329:307 *329:324 9.06 
50 *329:324 *3475:RN 4.5 
51 *329:324 *329:335 9.06 
52 *329:335 *3473:RN 14.396 
53 *329:335 *3474:RN 10.444 
54 *329:303 *3469:RN 9.684 
*END

*D_NET *330 0.013474
*CONN
*I *3337:A2 I *D gf180mcu_fd_sc_mcu7t5v0__aoi21_1
*I *3336:A2 I *D gf180mcu_fd_sc_mcu7t5v0__nor2_1
*I *3344:A2 I *D gf180mcu_fd_sc_mcu7t5v0__and2_1
*I *3338:S I *D gf180mcu_fd_sc_mcu7t5v0__mux2_2
*I *3343:S I *D gf180mcu_fd_sc_mcu7t5v0__mux2_2
*I *3565:Z O *D gf180mcu_fd_sc_mcu7t5v0__buf_2
*CAP
1 *3337:A2 0
2 *3336:A2 9.98987e-05
3 *3344:A2 0.000400054
4 *3338:S 0
5 *3343:S 0.00141028
6 *3565:Z 0.000230787
7 *330:44 0.000723273
8 *330:42 0.00111326
9 *330:12 0.00149149
10 *330:8 0.00120194
11 *3336:A2 *3336:A1 1.5015e-05
12 *3336:A2 *3454:SETN 0.000123951
13 *3336:A2 *3460:SETN 9.88736e-06
14 *3336:A2 *374:25 4.97386e-06
15 *3343:S *3338:I1 0.000134113
16 *3343:S *3343:I0 6.56531e-05
17 *3343:S *3355:I0 6.7303e-05
18 *3343:S *333:18 0
19 *3344:A2 *343:621 0.000301685
20 *3344:A2 *374:25 0.000588752
21 *3344:A2 *374:31 6.73926e-05
22 *3344:A2 *417:8 0
23 *3344:A2 *428:8 0
24 *330:8 *3338:I1 0.000179929
25 *330:8 *333:18 3.63581e-05
26 *330:8 *337:12 0.000282742
27 *330:12 *3338:I1 3.45972e-05
28 *330:12 *333:18 9.17274e-06
29 *330:42 *3254:B1 3.15187e-06
30 *330:42 *3254:C2 0.000132943
31 *330:42 *3265:B1 0.000215304
32 *330:42 *3265:B2 0.000937057
33 *330:42 *3268:A1 0.000238095
34 *330:42 *3338:I0 9.88736e-06
35 *330:42 *3350:A2 0
36 *330:42 *3442:CLKN 0.0002221
37 *330:42 *337:29 6.0013e-05
38 *330:42 *337:33 4.2318e-06
39 *330:42 *427:23 0.000787074
40 *330:42 *427:40 0.000428732
41 *330:42 *938:8 8.18373e-05
42 *330:44 *3268:A1 0.000514812
43 *330:44 *3518:D 0
44 *330:44 *374:25 0.000193185
45 *330:44 *417:8 0
46 *3254:C1 *330:42 0.000218888
47 *3337:B *3336:A2 3.46548e-05
48 *3454:D *3344:A2 0.000265092
49 *3534:I *330:42 0.000226063
50 *287:8 *330:8 0.000132929
51 *325:10 *3343:S 0
52 *325:56 *3343:S 6.25211e-05
53 *327:39 *3344:A2 0.000112956
*RES
1 *3565:Z *330:8 11.052 
2 *330:8 *330:12 0.608 
3 *330:12 *3343:S 17.968 
4 *330:12 *3338:S 9 
5 *330:8 *330:42 19.488 
6 *330:42 *330:44 2.204 
7 *330:44 *3344:A2 15.08 
8 *330:44 *3336:A2 9.836 
9 *330:42 *3337:A2 9 
*END

*D_NET *331 0.00126356
*CONN
*I *4072:I I *D gf180mcu_fd_sc_mcu7t5v0__clkbuf_3
*I *3579:Z O *D gf180mcu_fd_sc_mcu7t5v0__buf_1
*CAP
1 *4072:I 0.000294925
2 *3579:Z 0.000294925
3 *4072:I *3143:I 0.00032464
4 oSPI_MISO_OUT *4072:I 0.000349066
5 *3447:RN *4072:I 0
*RES
1 *3579:Z *4072:I 11.964 
*END

*D_NET *332 0.00548095
*CONN
*I *3385:B I *D gf180mcu_fd_sc_mcu7t5v0__aoi21_1
*I *3373:I I *D gf180mcu_fd_sc_mcu7t5v0__clkinv_1
*I *3374:A2 I *D gf180mcu_fd_sc_mcu7t5v0__nand2_1
*I *3566:Z O *D gf180mcu_fd_sc_mcu7t5v0__clkbuf_1
*CAP
1 *3385:B 0
2 *3373:I 8.35349e-05
3 *3374:A2 4.75075e-05
4 *3566:Z 0.000673559
5 *332:20 0.000597195
6 *332:16 0.00113971
7 *3373:I *3377:B2 5.48455e-05
8 *3374:A2 *3377:B2 0.000151949
9 *332:16 *3389:A1 5.35814e-05
10 *332:16 *366:32 6.73926e-05
11 *332:16 *371:10 0
12 *332:16 *372:25 4.84492e-05
13 *332:20 *3389:A1 0
14 *332:20 *370:19 0.000235808
15 *332:20 *370:23 0.0010888
16 *3474:CLK *332:16 3.42838e-05
17 *3566:I *332:16 5.30403e-05
18 *295:12 *3374:A2 2.0537e-05
19 *295:12 *332:20 1.13356e-05
20 *297:10 *332:16 9.16934e-05
21 *297:10 *332:20 0.000206333
22 *297:19 *332:16 8.47159e-05
23 *297:43 *332:16 0.000130638
24 *300:10 *3374:A2 0.000200335
25 *300:10 *332:20 3.35674e-05
26 *300:16 *3373:I 0.000372137
*RES
1 *3566:Z *332:16 18.516 
2 *332:16 *332:20 9.136 
3 *332:20 *3374:A2 9.988 
4 *332:20 *3373:I 9.988 
5 *332:16 *3385:B 4.5 
*END

*D_NET *333 0.00861555
*CONN
*I *3355:S I *D gf180mcu_fd_sc_mcu7t5v0__mux2_2
*I *3351:S I *D gf180mcu_fd_sc_mcu7t5v0__mux2_2
*I *3352:S I *D gf180mcu_fd_sc_mcu7t5v0__mux2_2
*I *3567:Z O *D gf180mcu_fd_sc_mcu7t5v0__buf_2
*CAP
1 *3355:S 1.51501e-05
2 *3351:S 0.000493965
3 *3352:S 0.000615331
4 *3567:Z 0.00113091
5 *333:31 0.000613446
6 *333:18 0.00185057
7 *3351:S *3351:I1 7.24161e-06
8 *3351:S *3355:I0 0
9 *3351:S *3503:RN 0.000446378
10 *3351:S *343:174 0.000406051
11 *3351:S *929:29 0.000399191
12 *3351:S *932:25 0.000156311
13 *3352:S *3352:I1 5.33906e-05
14 *3352:S *3355:I0 8.55327e-05
15 *3352:S *3464:RN 0.000192372
16 *3352:S *343:48 1.44832e-05
17 *3352:S *343:61 9.97319e-05
18 *3355:S *3355:I0 5.4634e-05
19 *333:18 *3265:B2 0.000389489
20 *333:18 *3272:I0 0
21 *333:18 *3335:A1 0.000189843
22 *333:18 *337:29 7.24161e-06
23 *333:18 *343:174 9.47109e-05
24 *333:18 *421:22 0
25 *333:18 *929:29 0
26 *333:18 *937:12 0.000222592
27 *333:31 *3355:I0 0.000346011
28 *3343:S *333:18 0
29 *3502:CLK *3351:S 0.000493315
30 *3502:CLK *3352:S 0
31 *3502:CLK *333:31 0
32 *3567:I *333:18 3.22221e-05
33 *240:29 *333:18 0.000128009
34 *240:52 *333:18 2.96621e-05
35 *283:12 *333:18 2.23598e-06
36 *330:8 *333:18 3.63581e-05
37 *330:12 *333:18 9.17274e-06
*RES
1 *3567:Z *333:18 21.936 
2 *333:18 *3352:S 9.136 
3 *333:18 *333:31 0.988 
4 *333:31 *3351:S 18.972 
5 *333:31 *3355:S 4.728 
*END

*D_NET *334 0.013314
*CONN
*I *3262:A2 I *D gf180mcu_fd_sc_mcu7t5v0__aoi21_1
*I *3259:A2 I *D gf180mcu_fd_sc_mcu7t5v0__nand2_1
*I *3256:A2 I *D gf180mcu_fd_sc_mcu7t5v0__nand2_1
*I *3254:A2 I *D gf180mcu_fd_sc_mcu7t5v0__aoi222_1
*I *3568:Z O *D gf180mcu_fd_sc_mcu7t5v0__buf_2
*CAP
1 *3262:A2 2.40976e-05
2 *3259:A2 6.37989e-05
3 *3256:A2 0.000609905
4 *3254:A2 0.000519144
5 *3568:Z 0.000131244
6 *334:22 0.00130974
7 *334:20 0.000745583
8 *334:14 0.000656439
9 *3254:A2 *3150:A1 8.64836e-05
10 *3254:A2 *3254:A1 0.000109362
11 *3254:A2 *3268:A1 5.50822e-06
12 *3254:A2 *3549:I 7.83779e-05
13 *3254:A2 *417:8 0.000343587
14 *3254:A2 *417:27 7.48834e-05
15 *3256:A2 *3150:A1 0
16 *3256:A2 *3256:A1 0.00023197
17 *3256:A2 *3272:I0 0
18 *3256:A2 *3442:CLKN 5.48975e-05
19 *3256:A2 *421:22 6.3862e-05
20 *3262:A2 *3169:A1 1.76898e-05
21 *3258:A1 *3256:A2 4.68919e-05
22 *3258:A2 *3256:A2 6.17803e-05
23 *3260:A2 *334:14 0.000394076
24 *3261:B2 *3259:A2 0
25 *3266:B2 *3254:A2 0.000278996
26 *3266:B2 *334:20 0.0020483
27 *3266:B2 *334:22 0.00071658
28 *3353:S *3259:A2 3.14377e-05
29 *3442:RN *3254:A2 0.000171927
30 *3442:RN *3256:A2 9.88736e-06
31 *3443:D *3256:A2 0.000248576
32 *144:33 *3262:A2 0.000194469
33 *144:33 *334:20 0.000953336
34 *238:48 *334:14 0.000614962
35 *238:73 *3256:A2 5.27585e-05
36 *238:122 *334:14 0.000523979
37 *240:52 *3256:A2 0.000263864
38 *247:10 *3262:A2 5.04264e-05
39 *247:10 *334:20 0.000434272
40 *251:8 *334:14 0.00018346
41 *283:43 *3254:A2 0.000103888
42 *283:43 *3256:A2 0.000803603
*RES
1 *3568:Z *334:14 16.768 
2 *334:14 *334:20 12.1 
3 *334:20 *334:22 1.9 
4 *334:22 *3254:A2 22.636 
5 *334:22 *3256:A2 23.548 
6 *334:20 *3259:A2 9.38 
7 *334:14 *3262:A2 5.032 
*END

*D_NET *335 0.00617497
*CONN
*I *3349:S I *D gf180mcu_fd_sc_mcu7t5v0__mux2_2
*I *3241:I I *D gf180mcu_fd_sc_mcu7t5v0__clkinv_1
*I *3345:S I *D gf180mcu_fd_sc_mcu7t5v0__mux2_2
*I *3346:S I *D gf180mcu_fd_sc_mcu7t5v0__mux2_2
*I *3569:Z O *D gf180mcu_fd_sc_mcu7t5v0__buf_2
*CAP
1 *3349:S 7.2438e-05
2 *3241:I 0
3 *3345:S 7.2438e-05
4 *3346:S 0.000500683
5 *3569:Z 0.000667351
6 *335:14 0.000901133
7 *335:8 0.0010678
8 *3346:S *3345:I0 0.000209302
9 *3346:S *3349:I0 0.000142065
10 *3346:S *3428:CLK 0.000146053
11 *3346:S *3456:RN 0
12 *3346:S *3459:RN 0.000291813
13 *3349:S *3345:I1 0.000158809
14 *3349:S *3349:I0 0.00033375
15 *3349:S *343:72 0
16 *3349:S *936:10 2.2499e-05
17 *3349:S *936:25 3.07734e-05
18 *335:8 *3347:I1 7.63078e-05
19 *335:8 *3352:I0 0
20 *335:8 *3456:RN 0
21 *335:8 *343:29 8.80098e-06
22 *335:14 *3345:I0 5.94067e-05
23 *335:14 *3345:I1 4.61098e-05
24 *335:14 *3352:I0 0
25 *335:14 *3455:RN 0.000319963
26 *335:14 *3456:RN 0
27 *335:14 *3459:RN 0.000317503
28 *335:14 *343:61 0.000142209
29 *335:14 *932:25 2.98504e-05
30 *3347:S *335:8 8.84331e-05
31 *3455:D *3349:S 0.000396904
32 *3456:D *3346:S 7.25737e-05
*RES
1 *3569:Z *335:8 13.332 
2 *335:8 *335:14 8.148 
3 *335:14 *3346:S 17.832 
4 *335:14 *3345:S 4.5 
5 *335:8 *3241:I 9 
6 *3345:S *3349:S 19.976 
*END

*D_NET *336 0.00450737
*CONN
*I *3206:A2 I *D gf180mcu_fd_sc_mcu7t5v0__and2_1
*I *3209:A2 I *D gf180mcu_fd_sc_mcu7t5v0__xor2_1
*I *3210:A3 I *D gf180mcu_fd_sc_mcu7t5v0__xor3_1
*I *3207:A2 I *D gf180mcu_fd_sc_mcu7t5v0__nand2_1
*I *3208:A2 I *D gf180mcu_fd_sc_mcu7t5v0__nor2_1
*I *4073:Z O *D gf180mcu_fd_sc_mcu7t5v0__clkbuf_2
*CAP
1 *3206:A2 0.000101434
2 *3209:A2 0.000110327
3 *3210:A3 0
4 *3207:A2 7.22728e-05
5 *3208:A2 2.3925e-05
6 *4073:Z 0.000294484
7 *336:32 0.000306833
8 *336:19 0.00041636
9 *336:8 0.000567424
10 *3207:A2 *409:8 0.000111867
11 *3208:A2 *3500:RN 8.55242e-05
12 *336:19 *409:12 0.000151949
13 *336:32 *409:12 0.000562328
14 *3206:A1 *3206:A2 0.000123275
15 *3206:A1 *3209:A2 0.00013063
16 *3207:A1 *3207:A2 0.00017019
17 *3209:A1 *3209:A2 0.000141897
18 *3210:A2 *3207:A2 5.87561e-06
19 *3210:A2 *336:19 0.000399191
20 *3214:B *3206:A2 8.91093e-05
21 *3214:B *3209:A2 8.81341e-06
22 *3215:B *3209:A2 9.56768e-06
23 *3:18 *336:8 0.000218349
24 *3:18 *336:19 0.000158129
25 *3:18 *336:32 0.000109837
26 *199:37 *3207:A2 0.000137785
*RES
1 *4073:Z *336:8 11.508 
2 *336:8 *3208:A2 9.228 
3 *336:8 *336:19 2.052 
4 *336:19 *3207:A2 9.988 
5 *336:19 *336:32 5.944 
6 *336:32 *3210:A3 4.5 
7 *336:32 *3209:A2 5.64 
8 *336:32 *3206:A2 5.564 
*END

*D_NET *337 0.0105658
*CONN
*I *3257:B1 I *D gf180mcu_fd_sc_mcu7t5v0__aoi221_1
*I *3254:B1 I *D gf180mcu_fd_sc_mcu7t5v0__aoi222_1
*I *3265:B1 I *D gf180mcu_fd_sc_mcu7t5v0__aoi22_1
*I *3350:A2 I *D gf180mcu_fd_sc_mcu7t5v0__nand2_1
*I *3570:Z O *D gf180mcu_fd_sc_mcu7t5v0__buf_2
*CAP
1 *3257:B1 0
2 *3254:B1 0.000263819
3 *3265:B1 0.000155595
4 *3350:A2 2.62339e-05
5 *3570:Z 0.000672945
6 *337:33 0.000469811
7 *337:29 0.000586468
8 *337:12 0.00123525
9 *3254:B1 *3150:A1 0
10 *3254:B1 *3254:B2 0.000725294
11 *3350:A2 *3335:A1 7.83779e-05
12 *3350:A2 *3338:I0 7.45328e-07
13 *337:12 *3263:B2 0.000374234
14 *337:29 *3335:A1 0.000147534
15 *337:29 *427:40 0.00012193
16 *337:33 *427:40 4.58601e-06
17 *3254:C1 *3254:B1 0.000223937
18 *3255:A1 *3254:B1 0.000300647
19 *3255:A1 *337:29 3.08902e-05
20 *3255:A1 *337:33 4.24811e-05
21 *3255:A2 *3254:B1 1.1971e-05
22 *3342:A1 *337:12 0.000255222
23 *3442:D *3254:B1 0.000564624
24 *240:29 *337:12 0.000372667
25 *240:52 *337:29 0.000531452
26 *240:65 *337:29 1.02578e-05
27 *241:19 *337:12 2.25107e-05
28 *283:8 *337:12 0.000108195
29 *283:20 *337:12 0.00156042
30 *283:43 *337:12 5.44937e-05
31 *287:8 *337:12 9.55749e-05
32 *287:21 *337:12 2.47727e-05
33 *329:42 *337:12 0.000920146
34 *330:8 *337:12 0.000282742
35 *330:42 *3254:B1 3.15187e-06
36 *330:42 *3265:B1 0.000215304
37 *330:42 *3350:A2 0
38 *330:42 *337:29 6.0013e-05
39 *330:42 *337:33 4.2318e-06
40 *333:18 *337:29 7.24161e-06
*RES
1 *3570:Z *337:12 23.532 
2 *337:12 *3350:A2 4.728 
3 *337:12 *337:29 4.788 
4 *337:29 *337:33 0.532 
5 *337:33 *3265:B1 5.944 
6 *337:33 *3254:B1 8.604 
7 *337:29 *3257:B1 4.5 
*END

*D_NET *338 0.0120362
*CONN
*I *3360:A2 I *D gf180mcu_fd_sc_mcu7t5v0__nand2_1
*I *3364:A1 I *D gf180mcu_fd_sc_mcu7t5v0__nor2_1
*I *3363:A2 I *D gf180mcu_fd_sc_mcu7t5v0__aoi21_1
*I *3362:A1 I *D gf180mcu_fd_sc_mcu7t5v0__nor2_1
*I *3365:A2 I *D gf180mcu_fd_sc_mcu7t5v0__aoi21_1
*I *3361:A1 I *D gf180mcu_fd_sc_mcu7t5v0__oai21_1
*I *3358:A2 I *D gf180mcu_fd_sc_mcu7t5v0__nand2_1
*I *3359:A2 I *D gf180mcu_fd_sc_mcu7t5v0__oai21_1
*I *3356:S I *D gf180mcu_fd_sc_mcu7t5v0__mux2_2
*I *3571:Z O *D gf180mcu_fd_sc_mcu7t5v0__buf_2
*CAP
1 *3360:A2 0
2 *3364:A1 0.000273411
3 *3363:A2 0
4 *3362:A1 0.000240495
5 *3365:A2 0
6 *3361:A1 0
7 *3358:A2 8.54542e-05
8 *3359:A2 0
9 *3356:S 5.23269e-05
10 *3571:Z 0.000410655
11 *338:79 0.000622909
12 *338:70 0.000540121
13 *338:66 0.000924171
14 *338:62 0.000761958
15 *338:47 0.000698661
16 *338:36 0.00092507
17 *338:25 0.000608037
18 *338:10 0.000661158
19 *3356:S *3356:I0 1.72918e-05
20 *3356:S *3356:I1 3.73535e-05
21 *3358:A2 *3358:A1 3.08902e-05
22 *3358:A2 *387:10 0.00011955
23 *338:10 *3571:I 6.77492e-05
24 *338:10 *386:12 0
25 *338:10 *391:53 8.81157e-05
26 *338:36 *387:10 0
27 *338:62 *3360:A1 3.08902e-05
28 *3149:A2 *338:66 0
29 *3359:A1 *338:25 2.74753e-05
30 *3359:A1 *338:36 1.5015e-05
31 *3359:B *3358:A2 8.73421e-05
32 *3359:B *338:36 5.86002e-05
33 *3361:A2 *338:47 3.19219e-05
34 *3361:A2 *338:62 0.000109831
35 *3361:A2 *338:66 0
36 *3361:B *338:62 5.48085e-05
37 *3363:A1 *338:79 0
38 *3365:A1 *3364:A1 0
39 *3365:A1 *338:66 0
40 *3365:A1 *338:70 1.02578e-05
41 *3365:A1 *338:79 2.22657e-05
42 *3365:B *3364:A1 0.000255714
43 *3365:B *338:70 1.15275e-05
44 *3399:A1 *338:66 0
45 *3467:D *338:25 2.6126e-05
46 *3468:D *338:47 0.00140415
47 *3468:CLK *338:47 0
48 *3469:D *338:79 5.18011e-05
49 *3470:D *338:70 0.000163052
50 *3472:RN *3358:A2 0
51 *3472:RN *338:36 5.67782e-05
52 *3529:I *338:10 0.000109659
53 *132:8 *338:79 0.000186796
54 *320:25 *338:10 0.000269814
55 *320:25 *338:25 0.000170751
56 *327:111 *338:47 0
57 *328:36 *3364:A1 7.24795e-05
58 *328:36 *338:70 6.26305e-05
59 *328:36 *338:79 2.98579e-05
60 *328:42 *338:70 8.55327e-05
61 *329:201 *338:25 4.97712e-06
62 *329:201 *338:36 2.40328e-06
63 *329:207 *338:10 0.000478097
64 *329:207 *338:25 0.000183642
65 *329:324 *338:79 0.000796594
*RES
1 *3571:Z *338:10 13.712 
2 *338:10 *3356:S 9.38 
3 *338:10 *338:25 6.628 
4 *338:25 *3359:A2 4.5 
5 *338:25 *338:36 7.236 
6 *338:36 *3358:A2 9.988 
7 *338:36 *338:47 4.484 
8 *338:47 *3361:A1 9 
9 *338:47 *338:62 6.248 
10 *338:62 *338:66 7.312 
11 *338:66 *338:70 5.944 
12 *338:70 *3365:A2 4.5 
13 *338:70 *338:79 3.648 
14 *338:79 *3362:A1 14.944 
15 *338:79 *3363:A2 4.5 
16 *338:66 *3364:A1 10.976 
17 *338:62 *3360:A2 4.5 
*END

*D_NET *339 0.0113833
*CONN
*I *3318:S I *D gf180mcu_fd_sc_mcu7t5v0__mux2_2
*I *3311:A2 I *D gf180mcu_fd_sc_mcu7t5v0__nor2_1
*I *3312:A2 I *D gf180mcu_fd_sc_mcu7t5v0__aoi21_1
*I *3324:S I *D gf180mcu_fd_sc_mcu7t5v0__mux2_2
*I *3314:A2 I *D gf180mcu_fd_sc_mcu7t5v0__nor2_1
*I *3319:S I *D gf180mcu_fd_sc_mcu7t5v0__mux2_2
*I *3315:A2 I *D gf180mcu_fd_sc_mcu7t5v0__aoi21_1
*I *3313:S I *D gf180mcu_fd_sc_mcu7t5v0__mux2_2
*I *3310:S I *D gf180mcu_fd_sc_mcu7t5v0__mux2_2
*I *3572:Z O *D gf180mcu_fd_sc_mcu7t5v0__buf_4
*CAP
1 *3318:S 0.000504866
2 *3311:A2 3.35401e-05
3 *3312:A2 4.5794e-05
4 *3324:S 0.000654771
5 *3314:A2 9.57153e-05
6 *3319:S 0
7 *3315:A2 0
8 *3313:S 0.000210969
9 *3310:S 0.000273356
10 *3572:Z 0.00040885
11 *339:51 0.000444415
12 *339:37 0.000278729
13 *339:29 0.000765202
14 *339:25 0.000723638
15 *339:23 0.000305781
16 *339:12 0.00077525
17 *3310:S *3311:A1 0.000147305
18 *3313:S *3313:I1 2.57058e-06
19 *3313:S *343:297 0.000224654
20 *3313:S *343:301 0.000386421
21 *3314:A2 *398:19 4.724e-05
22 *3318:S *3324:I0 7.24161e-06
23 *3318:S *3497:RN 3.56172e-05
24 *3324:S *3319:I0 0.000381557
25 *3324:S *3324:I0 4.50449e-05
26 *3324:S *3324:I1 5.83634e-05
27 *3324:S *3497:RN 0.00052565
28 *3324:S *343:314 0.000564624
29 *339:12 *3311:A1 0.00114725
30 *339:12 *343:431 0.000220403
31 *339:23 *3311:A1 3.35674e-05
32 *339:37 *343:301 8.4664e-05
33 *339:51 *3319:I0 4.50449e-05
34 *339:51 *3319:I1 0
35 *339:51 *343:301 0.000362608
36 *339:51 *343:314 0.000336482
37 *3312:A1 *3310:S 0
38 *3486:CLK *3310:S 0.000296007
39 *3486:CLK *339:12 4.58601e-06
40 *3487:D *3312:A2 8.55242e-05
41 *3488:D *3313:S 0
42 *3499:CLK *339:12 5.25777e-05
43 *323:10 *339:12 0.00024136
44 *323:27 *339:12 0.000123888
45 *323:27 *339:23 3.7731e-05
46 *323:27 *339:25 7.88666e-05
47 *323:29 *339:25 2.09512e-05
48 *323:29 *339:29 2.1182e-05
49 *323:31 *339:29 0.000149234
50 *323:35 *339:29 9.42432e-05
*RES
1 *3572:Z *339:12 19.124 
2 *339:12 *3310:S 7.008 
3 *339:12 *339:23 5.184 
4 *339:23 *339:25 1.292 
5 *339:25 *339:29 8.072 
6 *339:29 *339:37 0.912 
7 *339:37 *3313:S 6.704 
8 *339:37 *3315:A2 4.5 
9 *339:29 *339:51 1.9 
10 *339:51 *3319:S 4.5 
11 *339:51 *3314:A2 14.184 
12 *339:51 *3324:S 7.768 
13 *339:25 *3312:A2 9.38 
14 *339:23 *3311:A2 9.228 
15 *3324:S *3318:S 11.964 
*END

*D_NET *340 0.0163299
*CONN
*I *3574:I I *D gf180mcu_fd_sc_mcu7t5v0__buf_4
*I *3406:I I *D gf180mcu_fd_sc_mcu7t5v0__clkinv_1
*I *3403:I I *D gf180mcu_fd_sc_mcu7t5v0__clkinv_1
*I *3402:I I *D gf180mcu_fd_sc_mcu7t5v0__clkinv_1
*I *3401:I I *D gf180mcu_fd_sc_mcu7t5v0__clkinv_1
*I *3144:I I *D gf180mcu_fd_sc_mcu7t5v0__clkinv_1
*I *3400:I I *D gf180mcu_fd_sc_mcu7t5v0__clkinv_1
*I *3404:I I *D gf180mcu_fd_sc_mcu7t5v0__clkinv_1
*I *3405:I I *D gf180mcu_fd_sc_mcu7t5v0__clkinv_1
*I *3410:I I *D gf180mcu_fd_sc_mcu7t5v0__clkinv_1
*I *3562:Z O *D gf180mcu_fd_sc_mcu7t5v0__buf_1
*CAP
1 *3574:I 0.000458842
2 *3406:I 4.72397e-05
3 *3403:I 0
4 *3402:I 0.000153487
5 *3401:I 0
6 *3144:I 0
7 *3400:I 0.000109023
8 *3404:I 0
9 *3405:I 0
10 *3410:I 9.3401e-05
11 *3562:Z 0
12 *340:73 0.000463021
13 *340:67 0.000924394
14 *340:61 0.00103336
15 *340:57 0.000603315
16 *340:46 0.000576716
17 *340:33 0.000943965
18 *340:27 0.00184133
19 *340:17 0.00171821
20 *340:4 0.000219769
21 *3400:I *351:40 0
22 *3400:I *959:10 2.77542e-05
23 *3402:I *3348:I0 0
24 *3406:I *3436:D 6.26721e-05
25 *3406:I *964:8 0
26 *3410:I *3409:I 0.000317494
27 *3410:I *3434:D 6.39906e-05
28 *3410:I *3435:D 0
29 *3574:I *3409:I 0
30 *3574:I *3435:D 0.000201957
31 *3574:I *342:12 7.45328e-07
32 *340:17 *351:10 0
33 *340:27 *3240:A3 0
34 *340:27 *3435:D 4.37273e-05
35 *340:27 *351:10 0
36 *340:27 *949:22 3.73134e-05
37 *340:33 *3433:CLK 3.6222e-05
38 *340:33 *351:26 2.96095e-05
39 *340:46 *351:24 2.96621e-05
40 *340:46 *351:26 0.00122271
41 *340:57 *3432:D 0
42 *340:57 *351:26 9.45638e-06
43 *340:57 *351:28 3.91889e-05
44 *340:61 *3430:D 0.000125642
45 *340:61 *351:28 5.94709e-06
46 *340:61 *961:14 0.000162158
47 *340:61 *962:12 0
48 *340:67 *3348:I0 0
49 *340:67 *3429:D 3.54047e-05
50 *340:67 *3430:D 0.000222378
51 *340:67 *351:32 0.000594335
52 *340:73 *959:10 0.000134206
53 *3239:A2 *340:27 0.000791922
54 *3429:RN *3402:I 0.00020108
55 *3429:RN *340:61 0.000282935
56 *3430:RN *340:61 0.000387773
57 *3431:RN *340:57 0.000255714
58 *3432:RN *340:33 1.61588e-05
59 *3433:RN *340:27 0.000407705
60 *3435:CLK *340:27 0
61 *3436:RN *340:27 7.41459e-05
62 *3440:RN *3574:I 0.000148623
63 *3440:RN *340:17 0.000215472
64 *3441:RN *340:17 7.30256e-05
65 *3441:RN *340:27 7.30839e-05
66 *3575:I *340:27 0.000741951
67 *231:10 *340:27 7.16197e-05
*RES
1 *3562:Z *340:4 4.5 
2 *340:4 *3410:I 5.564 
3 *340:4 *340:17 5.64 
4 *340:17 *340:27 18.348 
5 *340:27 *340:33 8.3 
6 *340:33 *3405:I 4.5 
7 *340:33 *340:46 12.344 
8 *340:46 *3404:I 4.5 
9 *340:46 *340:57 6.78 
10 *340:57 *340:61 8.528 
11 *340:61 *340:67 8.604 
12 *340:67 *340:73 6.628 
13 *340:73 *3400:I 14.184 
14 *340:73 *3144:I 4.5 
15 *340:67 *3401:I 9 
16 *340:61 *3402:I 5.64 
17 *340:57 *3403:I 9 
18 *340:27 *3406:I 9.38 
19 *340:17 *3574:I 12.42 
*END

*D_NET *341 0.0171493
*CONN
*I *3447:CLKN I *D gf180mcu_fd_sc_mcu7t5v0__dffnrnq_1
*I *3448:CLKN I *D gf180mcu_fd_sc_mcu7t5v0__dffnrnq_1
*I *3438:CLK I *D gf180mcu_fd_sc_mcu7t5v0__dffrnq_1
*I *3446:CLKN I *D gf180mcu_fd_sc_mcu7t5v0__dffnrnq_1
*I *3445:CLKN I *D gf180mcu_fd_sc_mcu7t5v0__dffnrnq_1
*I *3444:CLKN I *D gf180mcu_fd_sc_mcu7t5v0__dffnrnq_1
*I *3442:CLKN I *D gf180mcu_fd_sc_mcu7t5v0__dffnrnq_1
*I *3443:CLKN I *D gf180mcu_fd_sc_mcu7t5v0__dffnrnq_1
*I *3439:CLK I *D gf180mcu_fd_sc_mcu7t5v0__dffrnq_1
*I *3440:CLK I *D gf180mcu_fd_sc_mcu7t5v0__dffrnq_1
*I *3573:Z O *D gf180mcu_fd_sc_mcu7t5v0__buf_4
*CAP
1 *3447:CLKN 0.000248472
2 *3448:CLKN 0
3 *3438:CLK 5.08362e-05
4 *3446:CLKN 0.000168423
5 *3445:CLKN 0
6 *3444:CLKN 0.000158461
7 *3442:CLKN 0.000981819
8 *3443:CLKN 0
9 *3439:CLK 0
10 *3440:CLK 9.04618e-05
11 *3573:Z 0
12 *341:118 0.000392065
13 *341:44 0.00154737
14 *341:40 0.00101671
15 *341:38 0.000984018
16 *341:30 0.00111884
17 *341:24 0.000503099
18 *341:20 0.0007794
19 *341:13 0.000586879
20 *341:4 0.000234694
21 *3438:CLK *3415:I 5.71282e-05
22 *3440:CLK *3176:B 0.000179609
23 *3440:CLK *3573:I 2.59005e-05
24 *3442:CLKN *3150:A1 5.76749e-06
25 *3442:CLKN *3259:A1 0.000296244
26 *3442:CLKN *3265:B2 0.000239048
27 *3442:CLKN *3273:S 0.000149334
28 *3442:CLKN *421:22 0.000827951
29 *3444:CLKN *3138:I 9.50539e-05
30 *3444:CLKN *3412:I 0.000104928
31 *3447:CLKN *3142:I 0.000209639
32 *341:13 *3176:B 2.23385e-05
33 *341:13 *3573:I 4.97386e-06
34 *341:13 *947:21 4.94368e-05
35 *341:13 *947:38 0.000141897
36 *341:20 *3250:A1 0.000119866
37 *341:20 *342:49 0
38 *341:20 *947:38 0.000368747
39 *341:24 *945:18 0
40 *341:44 *3272:I0 0.000623556
41 *341:118 *3415:I 0
42 *3256:A2 *3442:CLKN 5.48975e-05
43 *3258:A2 *3442:CLKN 1.74708e-05
44 *3258:B1 *3442:CLKN 0.000566028
45 *3258:B2 *3442:CLKN 5.71299e-05
46 *3260:B1 *341:38 8.8425e-05
47 *3260:B1 *341:40 0.000911953
48 *3264:A2 *341:30 9.62572e-05
49 *3266:A1 *341:30 0.000336272
50 *3266:B2 *3446:CLKN 1.3758e-05
51 *3438:D *341:20 6.13012e-05
52 *3438:D *341:24 0
53 *3439:D *341:13 5.86759e-05
54 *3439:D *341:20 5.76373e-06
55 *3440:D *3440:CLK 5.76373e-06
56 *3443:D *3442:CLKN 1.97747e-05
57 *3443:RN *3444:CLKN 5.14849e-05
58 *3444:D *3444:CLKN 6.00599e-05
59 *3446:D *3446:CLKN 0.000116355
60 *3446:RN *3447:CLKN 0
61 *3448:D *3447:CLKN 0.00018619
62 *3448:D *341:118 7.24161e-06
63 *3534:I *3442:CLKN 0.000199776
64 *144:8 *341:38 0
65 *144:33 *3446:CLKN 0.000118208
66 *238:10 *341:20 5.76063e-06
67 *238:10 *341:24 0.00029934
68 *238:10 *341:30 0.000842287
69 *238:33 *3446:CLKN 8.49277e-05
70 *238:44 *3446:CLKN 2.17248e-05
71 *238:73 *3442:CLKN 0.000248536
72 *239:16 *3438:CLK 8.81221e-06
73 *240:29 *341:38 0
74 *240:29 *341:40 0
75 *240:29 *341:44 0
76 *330:42 *3442:CLKN 0.0002221
*RES
1 *3573:Z *341:4 4.5 
2 *341:4 *3440:CLK 5.488 
3 *341:4 *341:13 1.292 
4 *341:13 *3439:CLK 4.5 
5 *341:13 *341:20 3.572 
6 *341:20 *341:24 6.096 
7 *341:24 *341:30 3.572 
8 *341:30 *341:38 13.104 
9 *341:38 *341:40 2.964 
10 *341:40 *341:44 8.376 
11 *341:44 *3443:CLKN 4.5 
12 *341:44 *3442:CLKN 31.468 
13 *341:40 *3444:CLKN 10.748 
14 *341:38 *3445:CLKN 9 
15 *341:30 *3446:CLKN 10.748 
16 *341:24 *3438:CLK 9.38 
17 *341:20 *341:118 0.836 
18 *341:118 *3448:CLKN 4.5 
19 *341:118 *3447:CLKN 6.932 
*END

*D_NET *342 0.0180605
*CONN
*I *3416:I I *D gf180mcu_fd_sc_mcu7t5v0__clkinv_1
*I *3417:I I *D gf180mcu_fd_sc_mcu7t5v0__clkinv_1
*I *3407:I I *D gf180mcu_fd_sc_mcu7t5v0__clkinv_1
*I *3415:I I *D gf180mcu_fd_sc_mcu7t5v0__clkinv_1
*I *3413:I I *D gf180mcu_fd_sc_mcu7t5v0__clkinv_1
*I *3411:I I *D gf180mcu_fd_sc_mcu7t5v0__clkinv_1
*I *3412:I I *D gf180mcu_fd_sc_mcu7t5v0__clkinv_1
*I *3414:I I *D gf180mcu_fd_sc_mcu7t5v0__clkinv_1
*I *3409:I I *D gf180mcu_fd_sc_mcu7t5v0__clkinv_1
*I *3408:I I *D gf180mcu_fd_sc_mcu7t5v0__clkinv_1
*I *3574:Z O *D gf180mcu_fd_sc_mcu7t5v0__buf_4
*CAP
1 *3416:I 0.000104816
2 *3417:I 0
3 *3407:I 0
4 *3415:I 0.000179722
5 *3413:I 0
6 *3411:I 0.000261592
7 *3412:I 0.000370478
8 *3414:I 0.000209205
9 *3409:I 0.000564332
10 *3408:I 0
11 *3574:Z 0
12 *342:106 0.000583103
13 *342:95 0.000713479
14 *342:57 0.00106441
15 *342:53 0.00109924
16 *342:49 0.00109617
17 *342:34 0.000755895
18 *342:30 0.00085375
19 *342:12 0.000775873
20 *342:4 0.000532963
21 *3409:I *3434:D 1.44832e-05
22 *3409:I *947:12 8.7332e-05
23 *3411:I *3259:A1 0.00100244
24 *3414:I *3141:I 0
25 *3414:I *946:22 0.000268332
26 *342:12 *947:12 0.000350409
27 *342:34 *946:16 0.00088247
28 *342:34 *946:22 0.000705391
29 *342:49 *945:18 0.000547949
30 *342:49 *947:38 3.23683e-05
31 *342:53 *3141:I 0
32 *342:53 *945:18 9.50296e-06
33 *342:106 *3248:A1 0
34 *342:106 *945:6 2.40898e-05
35 *342:106 *945:12 1.15312e-05
36 *3249:I *342:106 0
37 *3261:B1 *3411:I 0.000151949
38 *3264:A1 *342:53 0.000329899
39 *3264:A2 *342:53 2.47642e-05
40 *3266:B1 *342:53 0
41 *3266:B2 *3411:I 0.000609092
42 *3266:B2 *342:53 0
43 *3266:B2 *342:57 0
44 *3353:S *3411:I 0
45 *3353:S *3412:I 0
46 *3410:I *3409:I 0.000317494
47 *3438:RN *342:95 1.02578e-05
48 *3438:RN *342:106 0.000179609
49 *3438:CLK *3415:I 5.71282e-05
50 *3439:RN *342:12 2.6126e-05
51 *3439:RN *342:30 0
52 *3440:RN *3409:I 0.000459669
53 *3443:RN *3412:I 0.000376901
54 *3444:D *3411:I 6.07211e-05
55 *3444:D *3412:I 6.85351e-05
56 *3444:CLKN *3412:I 0.000104928
57 *3445:RN *3414:I 0.000255714
58 *3448:RN *3416:I 8.0216e-05
59 *3448:RN *342:106 7.53241e-05
60 *3562:I *3409:I 8.16881e-05
61 *3564:I *3409:I 7.50749e-05
62 *3574:I *3409:I 0
63 *3574:I *342:12 7.45328e-07
64 *238:10 *3415:I 3.42838e-05
65 *238:10 *342:49 6.68164e-05
66 *238:10 *342:53 0.000600289
67 *238:69 *3411:I 8.92063e-06
68 *238:69 *342:57 0.000578344
69 *239:16 *3414:I 0.00032464
70 *239:16 *3415:I 0
71 *239:16 *342:49 0
72 *247:10 *342:53 0
73 *341:20 *342:49 0
74 *341:118 *3415:I 0
*RES
1 *3574:Z *342:4 4.5 
2 *342:4 *342:12 11.128 
3 *342:12 *3408:I 4.5 
4 *342:12 *3409:I 9.592 
5 *342:4 *342:30 1.748 
6 *342:30 *342:34 8.376 
7 *342:34 *3414:I 11.128 
8 *342:34 *342:49 6.704 
9 *342:49 *342:53 9.744 
10 *342:53 *342:57 7.92 
11 *342:57 *3412:I 7.464 
12 *342:57 *3411:I 17.756 
13 *342:53 *3413:I 9 
14 *342:49 *3415:I 5.64 
15 *342:30 *342:95 1.368 
16 *342:95 *3407:I 4.5 
17 *342:95 *342:106 3.572 
18 *342:106 *3417:I 4.5 
19 *342:106 *3416:I 5.412 
*END

*D_NET *343 0.105439
*CONN
*I *3516:RN I *D gf180mcu_fd_sc_mcu7t5v0__dffrnq_1
*I *3517:RN I *D gf180mcu_fd_sc_mcu7t5v0__dffrnq_1
*I *3503:RN I *D gf180mcu_fd_sc_mcu7t5v0__dffrnq_1
*I *3502:RN I *D gf180mcu_fd_sc_mcu7t5v0__dffrnq_1
*I *3453:SETN I *D gf180mcu_fd_sc_mcu7t5v0__dffsnq_1
*I *3419:RN I *D gf180mcu_fd_sc_mcu7t5v0__dffrnq_2
*I *3519:RN I *D gf180mcu_fd_sc_mcu7t5v0__dffrnq_1
*I *3454:SETN I *D gf180mcu_fd_sc_mcu7t5v0__dffsnq_1
*I *3460:SETN I *D gf180mcu_fd_sc_mcu7t5v0__dffsnq_1
*I *3418:RN I *D gf180mcu_fd_sc_mcu7t5v0__dffrnq_1
*I *3481:RN I *D gf180mcu_fd_sc_mcu7t5v0__dffrnq_1
*I *3498:RN I *D gf180mcu_fd_sc_mcu7t5v0__dffrnq_1
*I *3512:RN I *D gf180mcu_fd_sc_mcu7t5v0__dffrnq_1
*I *3514:RN I *D gf180mcu_fd_sc_mcu7t5v0__dffrnq_1
*I *3494:RN I *D gf180mcu_fd_sc_mcu7t5v0__dffrnq_1
*I *3513:RN I *D gf180mcu_fd_sc_mcu7t5v0__dffrnq_2
*I *3511:SETN I *D gf180mcu_fd_sc_mcu7t5v0__dffsnq_1
*I *3515:RN I *D gf180mcu_fd_sc_mcu7t5v0__dffrnq_1
*I *3500:RN I *D gf180mcu_fd_sc_mcu7t5v0__dffrnq_1
*I *3491:RN I *D gf180mcu_fd_sc_mcu7t5v0__dffrnq_1
*I *3496:RN I *D gf180mcu_fd_sc_mcu7t5v0__dffrnq_1
*I *3492:RN I *D gf180mcu_fd_sc_mcu7t5v0__dffrnq_1
*I *3495:RN I *D gf180mcu_fd_sc_mcu7t5v0__dffrnq_1
*I *3501:RN I *D gf180mcu_fd_sc_mcu7t5v0__dffrnq_1
*I *3487:RN I *D gf180mcu_fd_sc_mcu7t5v0__dffrnq_1
*I *3499:RN I *D gf180mcu_fd_sc_mcu7t5v0__dffrnq_1
*I *3490:RN I *D gf180mcu_fd_sc_mcu7t5v0__dffrnq_1
*I *3486:RN I *D gf180mcu_fd_sc_mcu7t5v0__dffrnq_1
*I *3477:RN I *D gf180mcu_fd_sc_mcu7t5v0__dffrnq_1
*I *3483:RN I *D gf180mcu_fd_sc_mcu7t5v0__dffrnq_1
*I *3478:RN I *D gf180mcu_fd_sc_mcu7t5v0__dffrnq_1
*I *3482:RN I *D gf180mcu_fd_sc_mcu7t5v0__dffrnq_1
*I *3485:RN I *D gf180mcu_fd_sc_mcu7t5v0__dffrnq_1
*I *3488:RN I *D gf180mcu_fd_sc_mcu7t5v0__dffrnq_1
*I *3497:RN I *D gf180mcu_fd_sc_mcu7t5v0__dffrnq_1
*I *3493:RN I *D gf180mcu_fd_sc_mcu7t5v0__dffrnq_1
*I *3489:RN I *D gf180mcu_fd_sc_mcu7t5v0__dffrnq_1
*I *3484:RN I *D gf180mcu_fd_sc_mcu7t5v0__dffrnq_1
*I *3480:RN I *D gf180mcu_fd_sc_mcu7t5v0__dffrnq_1
*I *3479:RN I *D gf180mcu_fd_sc_mcu7t5v0__dffrnq_1
*I *3424:RN I *D gf180mcu_fd_sc_mcu7t5v0__dffrnq_1
*I *3423:RN I *D gf180mcu_fd_sc_mcu7t5v0__dffrnq_1
*I *3425:RN I *D gf180mcu_fd_sc_mcu7t5v0__dffrnq_1
*I *3422:RN I *D gf180mcu_fd_sc_mcu7t5v0__dffrnq_1
*I *3456:RN I *D gf180mcu_fd_sc_mcu7t5v0__dffrnq_1
*I *3459:RN I *D gf180mcu_fd_sc_mcu7t5v0__dffrnq_1
*I *3457:RN I *D gf180mcu_fd_sc_mcu7t5v0__dffrnq_1
*I *3463:RN I *D gf180mcu_fd_sc_mcu7t5v0__dffrnq_1
*I *3450:RN I *D gf180mcu_fd_sc_mcu7t5v0__dffrnq_1
*I *3464:RN I *D gf180mcu_fd_sc_mcu7t5v0__dffrnq_1
*I *3420:RN I *D gf180mcu_fd_sc_mcu7t5v0__dffrnq_1
*I *3421:RN I *D gf180mcu_fd_sc_mcu7t5v0__dffrnq_1
*I *3455:RN I *D gf180mcu_fd_sc_mcu7t5v0__dffrnq_1
*I *3461:SETN I *D gf180mcu_fd_sc_mcu7t5v0__dffsnq_1
*I *3437:RN I *D gf180mcu_fd_sc_mcu7t5v0__dffrnq_1
*I *3458:RN I *D gf180mcu_fd_sc_mcu7t5v0__dffrnq_1
*I *3575:Z O *D gf180mcu_fd_sc_mcu7t5v0__buf_20
*CAP
1 *3516:RN 9.87516e-05
2 *3517:RN 0.00087031
3 *3503:RN 0.000153524
4 *3502:RN 0.000640811
5 *3453:SETN 2.8347e-05
6 *3419:RN 9.35409e-05
7 *3519:RN 2.42393e-05
8 *3454:SETN 0.000152947
9 *3460:SETN 0.00036308
10 *3418:RN 0
11 *3481:RN 0
12 *3498:RN 0
13 *3512:RN 0.00135562
14 *3514:RN 0
15 *3494:RN 0.000615574
16 *3513:RN 0.000181506
17 *3511:SETN 2.44163e-05
18 *3515:RN 0.000194545
19 *3500:RN 0.000477945
20 *3491:RN 0
21 *3496:RN 3.96564e-05
22 *3492:RN 0.000248491
23 *3495:RN 0
24 *3501:RN 0
25 *3487:RN 3.28034e-05
26 *3499:RN 0.000309567
27 *3490:RN 0
28 *3486:RN 0
29 *3477:RN 0
30 *3483:RN 0
31 *3478:RN 0.000149798
32 *3482:RN 0.000187826
33 *3485:RN 7.65413e-05
34 *3488:RN 0
35 *3497:RN 0.000378293
36 *3493:RN 0
37 *3489:RN 9.81403e-06
38 *3484:RN 0.000647188
39 *3480:RN 0
40 *3479:RN 0.000402515
41 *3424:RN 5.3688e-05
42 *3423:RN 0.000312279
43 *3425:RN 0.000292843
44 *3422:RN 0
45 *3456:RN 0.000659427
46 *3459:RN 0.000507625
47 *3457:RN 4.97129e-05
48 *3463:RN 0.000453164
49 *3450:RN 0
50 *3464:RN 0.000407586
51 *3420:RN 6.98996e-05
52 *3421:RN 0.00043556
53 *3455:RN 8.14998e-05
54 *3461:SETN 4.92051e-05
55 *3437:RN 0
56 *3458:RN 4.242e-05
57 *3575:Z 0.000344855
58 *343:699 0.00169101
59 *343:668 0.000869567
60 *343:621 0.000692873
61 *343:615 0.000959163
62 *343:600 0.0013516
63 *343:564 0.0011413
64 *343:545 0.0011232
65 *343:543 0.000643882
66 *343:530 0.00103813
67 *343:512 0.000218962
68 *343:474 0.000699914
69 *343:472 0.000634963
70 *343:470 0.000975902
71 *343:457 0.000787278
72 *343:442 0.00088025
73 *343:431 0.00101275
74 *343:401 0.000513632
75 *343:397 0.00112564
76 *343:390 0.000542483
77 *343:383 0.000255348
78 *343:350 0.000516302
79 *343:346 0.000816508
80 *343:314 0.000590233
81 *343:301 0.000347444
82 *343:297 0.000532055
83 *343:293 0.000610723
84 *343:272 0.00152248
85 *343:268 0.0014542
86 *343:266 0.000383591
87 *343:264 0.00071261
88 *343:260 0.000868334
89 *343:251 0.000751081
90 *343:234 0.00115641
91 *343:223 0.000324758
92 *343:221 0.000474815
93 *343:197 0.00109428
94 *343:193 0.00129808
95 *343:191 0.00109391
96 *343:182 0.000345717
97 *343:176 0.000731961
98 *343:174 0.000881566
99 *343:170 0.000571764
100 *343:137 0.00116705
101 *343:107 0.000596656
102 *343:72 0.00115922
103 *343:61 0.00106784
104 *343:48 0.000398893
105 *343:46 0.000606091
106 *343:42 0.000643084
107 *343:29 0.000996502
108 *343:23 0.001298
109 *343:12 0.000887771
110 *3419:RN *430:10 5.76373e-06
111 *3420:RN *625:14 5.76373e-06
112 *3420:RN *936:25 0
113 *3421:RN *627:8 1.5015e-05
114 *3423:RN *3172:A1 3.62081e-05
115 *3423:RN *3172:A2 4.71447e-05
116 *3423:RN *3527:I 0
117 *3423:RN *877:8 0
118 *3425:RN *3173:A2 0.000469567
119 *3425:RN *877:8 1.15312e-05
120 *3425:RN *877:19 3.02683e-05
121 *3453:SETN *379:23 2.976e-05
122 *3454:SETN *374:25 0
123 *3456:RN *3345:I1 4.89423e-05
124 *3456:RN *3346:I1 0
125 *3456:RN *3349:I0 5.70302e-05
126 *3456:RN *933:21 0
127 *3457:RN *934:12 0.000317494
128 *3458:RN *3348:I0 0
129 *3459:RN *3345:I0 9.2805e-05
130 *3459:RN *3345:I1 5.48455e-05
131 *3459:RN *936:10 0
132 *3460:SETN *3336:A1 8.67574e-05
133 *3460:SETN *3351:I1 0.000163844
134 *3460:SETN *417:8 0.000158743
135 *3463:RN *928:12 0.000411809
136 *3478:RN *3285:A1 0
137 *3479:RN *3222:A1 4.29636e-06
138 *3479:RN *3226:A2 9.59747e-05
139 *3479:RN *3228:A1 6.81646e-05
140 *3479:RN *374:31 0.000273364
141 *3479:RN *379:44 0.000321823
142 *3479:RN *411:42 0.000101246
143 *3482:RN *375:12 3.87828e-05
144 *3484:RN *3313:I1 0
145 *3484:RN *377:12 0.000231948
146 *3484:RN *377:25 0.000342519
147 *3484:RN *377:36 0.00021548
148 *3489:RN *398:8 0.000666998
149 *3489:RN *398:19 0.000492181
150 *3492:RN *3192:A1 0.000526238
151 *3492:RN *3193:A1 4.06416e-05
152 *3494:RN *3325:I1 0.000553434
153 *3494:RN *390:10 0
154 *3494:RN *391:16 0
155 *3494:RN *403:14 0.000342528
156 *3496:RN *3193:A1 7.41459e-05
157 *3497:RN *3324:I0 0.000147313
158 *3497:RN *397:23 0
159 *3497:RN *402:8 4.71416e-05
160 *3499:RN *3178:A1 4.6818e-05
161 *3499:RN *3178:A2 0.000111867
162 *3499:RN *3179:A2 0
163 *3499:RN *3320:I1 9.17565e-06
164 *3499:RN *390:12 0
165 *3500:RN *409:8 0
166 *3502:RN *3265:B2 0
167 *3502:RN *3272:I0 9.02044e-05
168 *3502:RN *3273:S 0
169 *3502:RN *427:40 6.06919e-05
170 *3502:RN *929:29 5.52837e-05
171 *3503:RN *932:25 0.000298996
172 *3512:RN *3368:A2 0
173 *3512:RN *3368:A3 1.56182e-05
174 *3512:RN *387:40 0
175 *3517:RN *3237:B 8.29507e-05
176 *3517:RN *3553:I 0.000657233
177 *3519:RN *3273:I1 2.05156e-05
178 *343:12 *3348:I0 0
179 *343:12 *935:10 0
180 *343:23 *3347:I1 3.35674e-05
181 *343:23 *934:12 5.40492e-05
182 *343:29 *3347:I1 0.00047849
183 *343:29 *933:21 0.000148623
184 *343:42 *3338:I0 0.00011748
185 *343:42 *933:21 8.02751e-06
186 *343:42 *937:12 3.56519e-05
187 *343:46 *3352:I0 0
188 *343:46 *3352:I1 0.000396912
189 *343:46 *427:23 0.000998099
190 *343:61 *932:25 2.9965e-05
191 *343:72 *3352:I0 0
192 *343:170 *932:25 0.00011703
193 *343:174 *3355:I0 4.5136e-05
194 *343:174 *379:10 0.000151374
195 *343:174 *929:29 0.000226744
196 *343:176 *3343:I1 0.000183434
197 *343:176 *379:10 9.34472e-05
198 *343:182 *3418:D 0.000199393
199 *343:182 *3521:I 0.000140167
200 *343:191 *3130:I 6.73834e-05
201 *343:191 *3418:D 0.000277023
202 *343:191 *774:8 1.56182e-05
203 *343:197 *3173:A2 0.00021548
204 *343:197 *3422:D 0
205 *343:234 *3291:A1 5.87561e-06
206 *343:234 *414:6 3.23271e-05
207 *343:260 *3126:I 0
208 *343:264 *3243:C 0.000880191
209 *343:266 *3242:A2 0.000197957
210 *343:266 *3243:C 0.000263004
211 *343:266 *3280:A1 0
212 *343:266 *3550:I 3.37485e-05
213 *343:266 *388:10 0.000181996
214 *343:266 *388:32 0.000110995
215 *343:272 *3308:A2 8.04367e-06
216 *343:272 *3308:A3 4.07251e-05
217 *343:272 *375:25 0
218 *343:272 *375:66 0.000514812
219 *343:272 *377:36 9.45347e-06
220 *343:272 *377:51 2.67391e-05
221 *343:293 *3313:I1 0
222 *343:297 *3313:I1 0
223 *343:301 *397:23 0
224 *343:314 *397:23 0
225 *343:314 *402:8 5.76373e-06
226 *343:346 *3310:I1 0
227 *343:346 *375:12 0.000326266
228 *343:346 *375:19 0
229 *343:346 *376:10 3.83835e-06
230 *343:350 *375:12 0.000281792
231 *343:397 *3179:A2 0
232 *343:397 *3316:I1 3.73627e-05
233 *343:397 *395:6 0
234 *343:401 *3179:A2 0
235 *343:401 *3310:I0 0
236 *343:401 *395:10 0
237 *343:431 *3330:S 0
238 *343:431 *396:23 0
239 *343:442 *3330:I0 0
240 *343:442 *396:23 0.0001639
241 *343:457 *3183:A2 0.000119775
242 *343:457 *3217:A1 0.000193889
243 *343:457 *3317:I1 3.02222e-05
244 *343:457 *3330:I0 0
245 *343:457 *3554:I 0
246 *343:457 *390:96 0.000952666
247 *343:457 *396:23 0.000154348
248 *343:457 *396:50 0.000435696
249 *343:457 *410:28 0
250 *343:470 *3181:A1 0.00044777
251 *343:470 *396:50 3.05986e-05
252 *343:472 *3181:A1 6.48194e-05
253 *343:472 *400:17 0.000149685
254 *343:472 *400:33 8.56396e-05
255 *343:474 *3193:A1 6.05381e-05
256 *343:474 *400:17 8.9996e-05
257 *343:474 *405:8 8.9996e-05
258 *343:543 *3558:I 8.55327e-05
259 *343:543 *407:8 1.91917e-06
260 *343:564 *3325:I0 0
261 *343:600 *3551:I 1.0313e-05
262 *343:600 *379:23 3.23347e-05
263 *343:615 *3273:I1 0.000361084
264 *343:615 *3551:I 1.69174e-05
265 *343:615 *3552:I 5.70103e-05
266 *343:615 *379:23 2.17248e-05
267 *343:615 *379:44 2.8394e-05
268 *343:621 *417:8 0.000318428
269 *343:668 *932:25 0.000108532
270 *343:699 *3246:A1 0.00011955
271 *343:699 *3368:A3 5.5781e-05
272 *343:699 *389:15 2.89664e-05
273 *3204:A1 *343:470 0.000201957
274 *3204:B *343:470 2.74753e-05
275 *3205:A2 *3496:RN 0.000186796
276 *3208:A2 *3500:RN 8.55242e-05
277 *3210:A2 *3500:RN 2.74753e-05
278 *3216:A2 *343:457 0.000132619
279 *3247:B *343:699 0.000193942
280 *3279:A1 *343:383 7.30126e-05
281 *3279:A1 *343:390 0.00032464
282 *3288:A2 *343:251 0
283 *3290:A1 *343:251 3.2657e-05
284 *3291:A2 *343:234 5.02133e-05
285 *3291:A2 *343:251 0.000189737
286 *3292:A1 *343:251 0.000357193
287 *3292:A2 *343:234 0.000268492
288 *3292:A2 *343:251 3.27451e-05
289 *3295:A2 *343:266 0.000314428
290 *3295:A2 *343:268 3.83192e-05
291 *3295:A2 *343:383 0.000137785
292 *3295:A2 *343:390 0.00023197
293 *3295:A3 *343:272 0.000113344
294 *3295:A3 *343:390 2.25107e-05
295 *3298:A1 *3478:RN 0.000653285
296 *3309:A2 *343:272 5.02496e-05
297 *3309:B2 *3484:RN 5.48455e-05
298 *3309:B2 *343:272 8.15665e-05
299 *3309:B2 *343:293 7.57844e-05
300 *3309:B2 *343:297 0.000108627
301 *3313:S *343:297 0.000224654
302 *3313:S *343:301 0.000386421
303 *3315:A1 *343:297 0.000340358
304 *3315:A1 *343:301 8.55819e-05
305 *3315:B *343:301 2.03588e-05
306 *3315:B *343:314 3.82104e-05
307 *3318:S *3497:RN 3.56172e-05
308 *3322:A1 *3500:RN 0
309 *3324:S *3497:RN 0.00052565
310 *3324:S *343:314 0.000564624
311 *3329:A1 *3500:RN 8.0332e-05
312 *3329:A1 *343:472 0.000196936
313 *3336:A2 *3454:SETN 0.000123951
314 *3336:A2 *3460:SETN 9.88736e-06
315 *3344:A2 *343:621 0.000301685
316 *3346:S *3456:RN 0
317 *3346:S *3459:RN 0.000291813
318 *3347:S *343:29 0
319 *3349:S *343:72 0
320 *3351:S *3503:RN 0.000446378
321 *3351:S *343:174 0.000406051
322 *3352:S *3464:RN 0.000192372
323 *3352:S *343:48 1.44832e-05
324 *3352:S *343:61 9.97319e-05
325 *3378:A2 *3512:RN 0.000272068
326 *3378:A2 *343:564 3.23347e-05
327 *3437:CLK *3464:RN 0.00011703
328 *3437:CLK *343:48 2.22657e-05
329 *3437:CLK *343:61 0.000195368
330 *3450:CLK *3463:RN 0.000539294
331 *3450:CLK *343:46 0.001023
332 *3450:CLK *343:107 0.000447616
333 *3453:D *3419:RN 2.40867e-05
334 *3453:D *343:176 0.000115946
335 *3455:D *343:72 0
336 *3456:D *3459:RN 0.000370735
337 *3456:CLK *3459:RN 6.57222e-06
338 *3457:CLK *343:29 0
339 *3460:D *3460:SETN 2.57058e-06
340 *3460:CLK *343:615 0.00013979
341 *3464:D *343:174 4.74709e-05
342 *3466:CLK *343:543 0
343 *3471:D *343:564 0
344 *3471:CLK *3494:RN 5.56838e-05
345 *3471:CLK *343:543 0
346 *3471:CLK *343:564 8.15726e-05
347 *3472:CLK *343:564 0
348 *3477:D *343:268 0.000149465
349 *3477:D *343:272 8.83756e-05
350 *3477:D *343:346 0
351 *3477:CLK *343:266 0.00119757
352 *3477:CLK *343:268 0.000834709
353 *3477:CLK *343:272 0.000705383
354 *3478:D *3478:RN 0.000138779
355 *3480:D *343:251 0.00031512
356 *3480:D *343:260 2.23385e-05
357 *3481:D *343:251 0.000556564
358 *3485:D *343:272 0
359 *3489:D *343:301 0.000369754
360 *3490:D *343:397 0.00032464
361 *3490:D *343:431 5.76373e-06
362 *3499:D *343:431 0.000538438
363 *3499:CLK *3499:RN 5.94481e-05
364 *3499:CLK *343:401 5.40595e-05
365 *3500:CLK *343:474 0.000225107
366 *3502:CLK *3464:RN 0.000244687
367 *3502:CLK *3503:RN 0.000123561
368 *3502:CLK *343:170 0.000431535
369 *3502:CLK *343:668 0.000405417
370 *3509:CLK *343:23 0
371 *3509:CLK *343:29 0
372 *3511:CLK *3513:RN 5.40566e-05
373 *3511:CLK *343:264 0.000778045
374 *3530:I *3511:SETN 2.74753e-05
375 *3530:I *3515:RN 0.000175258
376 *3532:I *3494:RN 1.72912e-05
377 *3533:I *3512:RN 1.79941e-05
378 *3533:I *343:564 1.0313e-05
379 *3535:I *3463:RN 3.22374e-05
380 *3535:I *343:107 1.50855e-05
381 *3:18 *3492:RN 0
382 *3:18 *3516:RN 2.01247e-05
383 *3:18 *3517:RN 5.34623e-05
384 *3:18 *343:472 0
385 *3:18 *343:474 0
386 *3:18 *343:699 0
387 *127:22 *3500:RN 0
388 *127:22 *343:470 1.41533e-05
389 *136:12 *343:390 0.000106886
390 *195:14 *343:457 0.00115004
391 *199:10 *3500:RN 0.000709399
392 *232:10 *343:12 0.000510027
393 *232:10 *343:23 0
394 *232:12 *343:23 0
395 *233:12 *343:266 5.19228e-05
396 *238:73 *3502:RN 0
397 *253:14 *343:264 0.000663612
398 *253:14 *343:266 0.000732337
399 *255:14 *343:272 0
400 *258:10 *3478:RN 0.000333388
401 *265:8 *343:272 9.9501e-05
402 *321:12 *3478:RN 0.00107739
403 *321:12 *3482:RN 0.000120187
404 *321:16 *3482:RN 3.17618e-05
405 *322:55 *3423:RN 0
406 *323:35 *3489:RN 0.00115918
407 *323:104 *3492:RN 0.000336843
408 *323:104 *343:474 0.000142917
409 *323:124 *343:474 0.000136499
410 *323:133 *343:474 0.00038563
411 *324:30 *3494:RN 5.29681e-05
412 *325:21 *3420:RN 0.00032755
413 *325:21 *3421:RN 0
414 *325:23 *3421:RN 0
415 *325:65 *3453:SETN 6.73926e-05
416 *325:71 *343:193 2.97126e-05
417 *325:71 *343:600 0.000182978
418 *325:71 *343:615 0.000311338
419 *325:83 *343:182 8.78761e-05
420 *325:83 *343:221 0
421 *325:89 *3419:RN 0.000441055
422 *326:12 *3463:RN 0.000302021
423 *326:42 *3457:RN 8.7332e-05
424 *333:18 *343:174 9.47109e-05
425 *335:8 *3456:RN 0
426 *335:8 *343:29 8.80098e-06
427 *335:14 *3455:RN 0.000319963
428 *335:14 *3456:RN 0
429 *335:14 *3459:RN 0.000317503
430 *335:14 *343:61 0.000142209
431 *339:12 *343:431 0.000220403
432 *339:37 *343:301 8.4664e-05
433 *339:51 *343:301 0.000362608
434 *339:51 *343:314 0.000336482
*RES
1 *3575:Z *343:12 16.844 
2 *343:12 *3458:RN 4.728 
3 *343:12 *343:23 8.072 
4 *343:23 *343:29 9.668 
5 *343:29 *3437:RN 4.5 
6 *343:29 *343:42 6.4 
7 *343:42 *343:46 8.832 
8 *343:46 *343:48 0.228 
9 *343:48 *3461:SETN 4.88 
10 *343:48 *343:61 2.964 
11 *343:61 *3455:RN 5.336 
12 *343:61 *343:72 8.376 
13 *343:72 *3421:RN 11.432 
14 *343:72 *3420:RN 9.836 
15 *343:46 *3464:RN 7.844 
16 *343:42 *343:107 1.292 
17 *343:107 *3450:RN 9 
18 *343:107 *3463:RN 14.244 
19 *343:23 *3457:RN 9.836 
20 *3455:RN *343:137 4.5 
21 *343:137 *3459:RN 18.06 
22 *343:137 *3456:RN 17.756 
23 *3464:RN *343:170 5.64 
24 *343:170 *343:174 8.984 
25 *343:174 *343:176 3.876 
26 *343:176 *343:182 6.324 
27 *343:182 *3422:RN 4.5 
28 *343:182 *343:191 6.096 
29 *343:191 *343:193 2.204 
30 *343:193 *343:197 3.648 
31 *343:197 *3425:RN 11.432 
32 *343:197 *3423:RN 10.9 
33 *343:193 *343:221 7.312 
34 *343:221 *343:223 0.228 
35 *343:223 *3424:RN 5.032 
36 *343:223 *343:234 1.976 
37 *343:234 *3479:RN 17.832 
38 *343:234 *343:251 5.244 
39 *343:251 *3480:RN 4.5 
40 *343:251 *343:260 1.368 
41 *343:260 *343:264 10.352 
42 *343:264 *343:266 6.612 
43 *343:266 *343:268 2.052 
44 *343:268 *343:272 11.72 
45 *343:272 *3484:RN 18.592 
46 *343:272 *343:293 0.988 
47 *343:293 *343:297 3.952 
48 *343:297 *343:301 2.432 
49 *343:301 *3489:RN 16.312 
50 *343:301 *343:314 2.356 
51 *343:314 *3493:RN 4.5 
52 *343:314 *3497:RN 7.616 
53 *343:297 *3488:RN 4.5 
54 *343:293 *3485:RN 5.032 
55 *343:268 *343:346 8.376 
56 *343:346 *343:350 6.096 
57 *343:350 *3482:RN 10.368 
58 *343:350 *3478:RN 12.572 
59 *343:346 *3483:RN 4.5 
60 *343:266 *343:383 4.88 
61 *343:383 *3477:RN 4.5 
62 *343:383 *343:390 2.204 
63 *343:390 *3486:RN 4.5 
64 *343:390 *343:397 2.204 
65 *343:397 *343:401 5.944 
66 *343:401 *3490:RN 9 
67 *343:401 *3499:RN 11.432 
68 *343:397 *343:431 13.864 
69 *343:431 *3487:RN 4.728 
70 *343:431 *343:442 2.584 
71 *343:442 *3501:RN 4.5 
72 *343:442 *343:457 16.22 
73 *343:457 *3495:RN 4.5 
74 *343:457 *343:470 7.16 
75 *343:470 *343:472 2.508 
76 *343:472 *343:474 5.092 
77 *343:474 *3492:RN 11.964 
78 *343:474 *3496:RN 9.532 
79 *343:472 *3491:RN 9 
80 *343:470 *3500:RN 12.648 
81 *343:264 *343:512 4.5 
82 *343:512 *3515:RN 5.868 
83 *343:512 *3511:SETN 4.728 
84 *343:260 *343:530 1.14 
85 *343:530 *3513:RN 14.944 
86 *343:530 *343:543 3.724 
87 *343:543 *343:545 4.5 
88 *343:545 *3494:RN 14.7 
89 *343:545 *343:564 7.844 
90 *343:564 *3514:RN 4.5 
91 *343:564 *3512:RN 9.136 
92 *343:543 *3498:RN 4.5 
93 *343:221 *3481:RN 4.5 
94 *343:191 *343:600 8.604 
95 *343:600 *3418:RN 4.5 
96 *343:600 *343:615 15.156 
97 *343:615 *343:621 11.964 
98 *343:621 *3460:SETN 16.844 
99 *343:621 *3454:SETN 5.488 
100 *343:615 *3519:RN 4.728 
101 *343:176 *3419:RN 10.14 
102 *343:174 *3453:SETN 9.38 
103 *343:170 *343:668 1.14 
104 *343:668 *3502:RN 17.376 
105 *343:668 *3503:RN 7.008 
106 *3512:RN *343:699 9.516 
107 *343:699 *3517:RN 20.644 
108 *343:699 *3516:RN 5.26 
*END

*D_NET *344 0.00205076
*CONN
*I *3426:D I *D gf180mcu_fd_sc_mcu7t5v0__dffrnq_1
*I *3563:Z O *D gf180mcu_fd_sc_mcu7t5v0__dlyb_1
*CAP
1 *3426:D 0.000826139
2 *3563:Z 0.000826139
3 *3426:D *3813:I 3.00299e-05
4 *3426:D *3814:I 0.000312154
5 *3426:D *3815:I 5.63021e-05
6 *3426:D *3865:I 0
*RES
1 *3563:Z *3426:D 23.168 
*END

*D_NET *345 0.00133099
*CONN
*I *3435:D I *D gf180mcu_fd_sc_mcu7t5v0__dffrnq_1
*I *3545:Z O *D gf180mcu_fd_sc_mcu7t5v0__dlyc_1
*CAP
1 *3435:D 0.000423193
2 *3545:Z 0.000423193
3 *3435:D *3434:D 2.9965e-05
4 *3410:I *3435:D 0
5 *3435:CLK *3435:D 1.5015e-05
6 *3441:RN *3435:D 0.000193942
7 *3574:I *3435:D 0.000201957
8 *340:27 *3435:D 4.37273e-05
*RES
1 *3545:Z *3435:D 12.344 
*END

*D_NET *346 0.00152671
*CONN
*I *3504:D I *D gf180mcu_fd_sc_mcu7t5v0__dffrnq_1
*I *3546:Z O *D gf180mcu_fd_sc_mcu7t5v0__dlyc_1
*CAP
1 *3504:D 0.000380542
2 *3546:Z 0.000380542
3 *3504:D *3152:A2 1.47088e-05
4 *3504:D *416:8 0.000317503
5 *3504:D *420:12 1.52768e-05
6 *3504:D *420:18 0.000418142
7 *329:170 *3504:D 0
8 *329:172 *3504:D 0
9 *329:174 *3504:D 0
*RES
1 *3546:Z *3504:D 20.888 
*END

*D_NET *347 0.00227464
*CONN
*I *3436:D I *D gf180mcu_fd_sc_mcu7t5v0__dffrnq_1
*I *3547:Z O *D gf180mcu_fd_sc_mcu7t5v0__dlyc_1
*CAP
1 *3436:D 0.000530584
2 *3547:Z 0.000530584
3 *3436:D *949:22 1.76797e-05
4 *3240:A2 *3436:D 0.000414253
5 *3406:I *3436:D 6.26721e-05
6 *231:10 *3436:D 0.000718863
*RES
1 *3547:Z *3436:D 23.168 
*END

*D_NET *348 0.00136878
*CONN
*I *3506:D I *D gf180mcu_fd_sc_mcu7t5v0__dffrnq_1
*I *3548:Z O *D gf180mcu_fd_sc_mcu7t5v0__dlyc_1
*CAP
1 *3506:D 0.000307432
2 *3548:Z 0.000307432
3 *3506:D *3268:A1 0
4 *3506:D *418:23 3.4869e-05
5 *3505:CLK *3506:D 0.000514812
6 *144:33 *3506:D 2.96621e-05
7 *328:103 *3506:D 0.000174571
8 *329:61 *3506:D 0
*RES
1 *3548:Z *3506:D 20.888 
*END

*D_NET *349 0.00268427
*CONN
*I *3505:D I *D gf180mcu_fd_sc_mcu7t5v0__dffrnq_1
*I *3549:Z O *D gf180mcu_fd_sc_mcu7t5v0__dlyc_1
*CAP
1 *3505:D 0.000159494
2 *3549:Z 0.000159494
3 *3505:D *3254:A1 0.00145624
4 *3505:D *3262:A1 0.000298454
5 *3505:D *3268:A1 0.000479306
6 *3451:RN *3505:D 3.73627e-05
7 *329:55 *3505:D 9.39206e-05
*RES
1 *3549:Z *3505:D 22.408 
*END

*D_NET *350 0.00094234
*CONN
*I *3131:I I *D gf180mcu_fd_sc_mcu7t5v0__clkinv_1
*I *3550:Z O *D gf180mcu_fd_sc_mcu7t5v0__dlyc_1
*CAP
1 *3131:I 0.000225081
2 *3550:Z 0.000225081
3 *3295:A3 *3131:I 4.08987e-05
4 *3477:CLK *3131:I 0
5 *136:12 *3131:I 0.00045128
*RES
1 *3550:Z *3131:I 20.052 
*END

*D_NET *351 0.0187601
*CONN
*I *3573:I I *D gf180mcu_fd_sc_mcu7t5v0__buf_4
*I *3441:CLK I *D gf180mcu_fd_sc_mcu7t5v0__dffrnq_1
*I *3433:CLK I *D gf180mcu_fd_sc_mcu7t5v0__dffrnq_1
*I *3432:CLK I *D gf180mcu_fd_sc_mcu7t5v0__dffrnq_1
*I *3431:CLK I *D gf180mcu_fd_sc_mcu7t5v0__dffrnq_1
*I *3430:CLK I *D gf180mcu_fd_sc_mcu7t5v0__dffrnq_1
*I *3429:CLK I *D gf180mcu_fd_sc_mcu7t5v0__dffrnq_1
*I *3426:CLK I *D gf180mcu_fd_sc_mcu7t5v0__dffrnq_1
*I *3428:CLK I *D gf180mcu_fd_sc_mcu7t5v0__dffrnq_1
*I *3427:CLK I *D gf180mcu_fd_sc_mcu7t5v0__dffrnq_1
*I *3564:Z O *D gf180mcu_fd_sc_mcu7t5v0__buf_1
*CAP
1 *3573:I 0.000282811
2 *3441:CLK 2.54268e-05
3 *3433:CLK 6.71782e-05
4 *3432:CLK 0.000198987
5 *3431:CLK 0.000301465
6 *3430:CLK 0
7 *3429:CLK 0.000213097
8 *3426:CLK 0.000334239
9 *3428:CLK 0.000471443
10 *3427:CLK 0.000384225
11 *3564:Z 0.000538042
12 *351:42 0.00116847
13 *351:40 0.00150841
14 *351:34 0.001151
15 *351:32 0.00030712
16 *351:28 0.000895837
17 *351:26 0.000869568
18 *351:24 0.00113548
19 *351:16 0.001356
20 *351:10 0.00138992
21 *3426:CLK *3808:I 0
22 *3426:CLK *3810:I 1.23313e-05
23 *3426:CLK *3811:I 0.000286206
24 *3426:CLK *3812:I 0.000170425
25 *3427:CLK *3345:I0 5.76063e-06
26 *3427:CLK *3820:I 0
27 *3427:CLK *958:12 1.02578e-05
28 *3428:CLK *3345:I0 0
29 *3428:CLK *3428:D 3.51062e-05
30 *3429:CLK *3429:D 2.6126e-05
31 *3429:CLK *3430:D 0
32 *3431:CLK *3348:I0 0.000316029
33 *3431:CLK *3349:I0 5.76373e-06
34 *3432:CLK *3432:D 0
35 *3441:CLK *3545:I 0
36 *351:16 *3545:I 4.116e-05
37 *351:24 *3333:A1 0
38 *351:24 *930:10 0.000300836
39 *351:28 *961:14 0.000331356
40 *351:32 *3430:D 0.000255375
41 *351:32 *961:14 5.66861e-05
42 *351:40 *3430:D 0
43 *351:40 *3803:I 0.000143649
44 *351:40 *3805:I 0
45 *3334:A1 *351:24 0.000121193
46 *3334:B *351:24 5.5493e-05
47 *3346:S *3428:CLK 0.000146053
48 *3400:I *351:40 0
49 *3426:RN *3426:CLK 9.935e-05
50 *3426:RN *3427:CLK 3.62183e-05
51 *3426:RN *351:40 1.45899e-05
52 *3426:RN *351:42 8.67656e-05
53 *3427:RN *3426:CLK 0.000209085
54 *3430:RN *3431:CLK 0
55 *3430:RN *351:28 5.25777e-05
56 *3436:CLK *351:24 0.000293882
57 *3440:D *3573:I 0.000317503
58 *3440:D *351:16 0
59 *3440:RN *351:10 0
60 *3440:CLK *3573:I 2.59005e-05
61 *3441:D *3441:CLK 2.57058e-06
62 *41:12 *351:16 0
63 *231:16 *351:24 0
64 *232:10 *351:16 9.45347e-06
65 *232:10 *351:24 1.51256e-05
66 *326:103 *3441:CLK 7.83779e-05
67 *326:103 *351:24 0.00062644
68 *329:27 *351:24 1.65795e-06
69 *340:17 *351:10 0
70 *340:27 *351:10 0
71 *340:33 *3433:CLK 3.6222e-05
72 *340:33 *351:26 2.96095e-05
73 *340:46 *351:24 2.96621e-05
74 *340:46 *351:26 0.00122271
75 *340:57 *351:26 9.45638e-06
76 *340:57 *351:28 3.91889e-05
77 *340:61 *351:28 5.94709e-06
78 *340:67 *351:32 0.000594335
79 *341:13 *3573:I 4.97386e-06
*RES
1 *3564:Z *351:10 17.072 
2 *351:10 *351:16 8.3 
3 *351:16 *351:24 15.84 
4 *351:24 *351:26 3.572 
5 *351:26 *351:28 3.572 
6 *351:28 *351:32 7.464 
7 *351:32 *351:34 0.532 
8 *351:34 *351:40 9.516 
9 *351:40 *351:42 2.356 
10 *351:42 *3427:CLK 11.432 
11 *351:42 *3428:CLK 12.116 
12 *351:40 *3426:CLK 20.964 
13 *351:34 *3429:CLK 5.64 
14 *351:32 *3430:CLK 4.5 
15 *351:28 *3431:CLK 11.204 
16 *351:26 *3432:CLK 10.14 
17 *351:24 *3433:CLK 9.532 
18 *351:16 *3441:CLK 9.228 
19 *351:10 *3573:I 6.552 
*END

*D_NET *352 0.000932363
*CONN
*I *3130:I I *D gf180mcu_fd_sc_mcu7t5v0__clkinv_1
*I *3551:Z O *D gf180mcu_fd_sc_mcu7t5v0__dlyc_1
*CAP
1 *3130:I 0.000304913
2 *3551:Z 0.000304913
3 *3130:I *3418:D 9.4764e-05
4 *3130:I *774:8 0.00016039
5 *343:191 *3130:I 6.73834e-05
*RES
1 *3551:Z *3130:I 11.432 
*END

*D_NET *353 0.00136272
*CONN
*I *3519:D I *D gf180mcu_fd_sc_mcu7t5v0__dffrnq_1
*I *3552:Z O *D gf180mcu_fd_sc_mcu7t5v0__dlyc_1
*CAP
1 *3519:D 0.000100478
2 *3552:Z 0.000100478
3 *3519:D *3277:I1 1.44832e-05
4 *3519:D *875:16 0.000715757
5 *3481:CLK *3519:D 0.000431526
*RES
1 *3552:Z *3519:D 10.9 
*END

*D_NET *354 0.000370293
*CONN
*I *3125:I I *D gf180mcu_fd_sc_mcu7t5v0__clkinv_1
*I *3553:Z O *D gf180mcu_fd_sc_mcu7t5v0__dlyc_1
*CAP
1 *3125:I 0.000147485
2 *3553:Z 0.000147485
3 *3125:I *3237:B 7.53241e-05
4 *3516:D *3125:I 0
*RES
1 *3553:Z *3125:I 10.064 
*END

*D_NET *355 0.00130809
*CONN
*I *3326:A1 I *D gf180mcu_fd_sc_mcu7t5v0__nand2_1
*I *3554:Z O *D gf180mcu_fd_sc_mcu7t5v0__dlyc_1
*CAP
1 *3326:A1 0.000277734
2 *3554:Z 0.000277734
3 *3326:A1 *390:81 1.15275e-05
4 *3326:A1 *390:96 0.000722903
5 *3183:A3 *3326:A1 1.81888e-05
6 *178:10 *3326:A1 0
7 *178:53 *3326:A1 0
*RES
1 *3554:Z *3326:A1 11.584 
*END

*D_NET *356 0.000196821
*CONN
*I *3133:I I *D gf180mcu_fd_sc_mcu7t5v0__clkinv_1
*I *3555:Z O *D gf180mcu_fd_sc_mcu7t5v0__dlyc_1
*CAP
1 *3133:I 9.84103e-05
2 *3555:Z 9.84103e-05
*RES
1 *3555:Z *3133:I 9.684 
*END

*D_NET *357 0.000154339
*CONN
*I *3114:I I *D gf180mcu_fd_sc_mcu7t5v0__clkinv_1
*I *3556:Z O *D gf180mcu_fd_sc_mcu7t5v0__dlyc_1
*CAP
1 *3114:I 4.18696e-05
2 *3556:Z 4.18696e-05
3 *3160:A2 *3114:I 1.5015e-05
4 *124:10 *3114:I 5.55846e-05
*RES
1 *3556:Z *3114:I 9.38 
*END

*D_NET *358 0.0015065
*CONN
*I *3325:I0 I *D gf180mcu_fd_sc_mcu7t5v0__mux2_2
*I *3557:Z O *D gf180mcu_fd_sc_mcu7t5v0__dlyc_1
*CAP
1 *3325:I0 0.000329954
2 *3557:Z 0.000329954
3 *3325:I0 *3190:A1 0.000390225
4 *3325:I0 *3325:S 2.22657e-05
5 *3325:I0 *3557:I 6.49038e-05
6 *3325:I0 *374:90 7.74053e-05
7 *3471:CLK *3325:I0 0.000211315
8 *3514:D *3325:I0 3.95687e-05
9 *324:30 *3325:I0 4.09047e-05
10 *343:564 *3325:I0 0
*RES
1 *3557:Z *3325:I0 22.256 
*END

*D_NET *359 0.00178205
*CONN
*I *3511:D I *D gf180mcu_fd_sc_mcu7t5v0__dffsnq_1
*I *3558:Z O *D gf180mcu_fd_sc_mcu7t5v0__dlyc_1
*CAP
1 *3511:D 0.000185477
2 *3558:Z 0.000185477
3 *3511:D *374:90 0.00114337
4 *3511:D *390:6 0.000267726
*RES
1 *3558:Z *3511:D 11.964 
*END

*D_NET *360 0.000153083
*CONN
*I *3135:I I *D gf180mcu_fd_sc_mcu7t5v0__clkinv_1
*I *3559:Z O *D gf180mcu_fd_sc_mcu7t5v0__dlyc_1
*CAP
1 *3135:I 7.65413e-05
2 *3559:Z 7.65413e-05
3 *3135:I *3176:A2 0
*RES
1 *3559:Z *3135:I 9.532 
*END

*D_NET *361 0.00048125
*CONN
*I *3127:I I *D gf180mcu_fd_sc_mcu7t5v0__clkinv_1
*I *3560:Z O *D gf180mcu_fd_sc_mcu7t5v0__dlyc_1
*CAP
1 *3127:I 7.83051e-05
2 *3560:Z 7.83051e-05
3 *329:324 *3127:I 0.00032464
*RES
1 *3560:Z *3127:I 9.836 
*END

*D_NET *362 0.00288626
*CONN
*I *3578:I I *D gf180mcu_fd_sc_mcu7t5v0__buf_1
*I *3169:Z O *D gf180mcu_fd_sc_mcu7t5v0__and2_1
*CAP
1 *3578:I 0.00101255
2 *3169:Z 0.00101255
3 *3578:I *3167:C 0.00086116
*RES
1 *3169:Z *3578:I 26.664 
*END

*D_NET *363 0.000947205
*CONN
*I *3579:I I *D gf180mcu_fd_sc_mcu7t5v0__buf_1
*I *3249:ZN O *D gf180mcu_fd_sc_mcu7t5v0__clkinv_1
*CAP
1 *3579:I 0.000264698
2 *3249:ZN 0.000264698
3 *3579:I *3248:B 0.000386421
4 oSPI_MISO_OUT *3579:I 2.57058e-06
5 *3448:RN *3579:I 2.88187e-05
*RES
1 *3249:ZN *3579:I 11.128 
*END

*D_NET *364 0.000599648
*CONN
*I *4074:I I *D gf180mcu_fd_sc_mcu7t5v0__clkbuf_3
*I *3578:Z O *D gf180mcu_fd_sc_mcu7t5v0__buf_1
*CAP
1 *4074:I 0.000299824
2 *3578:Z 0.000299824
*RES
1 *3578:Z *4074:I 19.824 
*END

*D_NET *365 0.00814677
*CONN
*I *3393:A1 I *D gf180mcu_fd_sc_mcu7t5v0__nor2_1
*I *3394:A2 I *D gf180mcu_fd_sc_mcu7t5v0__aoi22_1
*I *3395:A4 I *D gf180mcu_fd_sc_mcu7t5v0__nor4_1
*I *3399:B2 I *D gf180mcu_fd_sc_mcu7t5v0__oai22_1
*I *3576:Z O *D gf180mcu_fd_sc_mcu7t5v0__buf_2
*CAP
1 *3393:A1 0.00021986
2 *3394:A2 0
3 *3395:A4 0
4 *3399:B2 0.000265742
5 *3576:Z 0.000472745
6 *365:44 0.00107395
7 *365:21 0.000899153
8 *365:10 0.000783547
9 *365:10 *3360:A1 0
10 *365:10 *366:12 0.000225092
11 *365:10 *370:53 0
12 *365:10 *372:39 0.000762046
13 *365:21 *3360:A1 0
14 *365:21 *372:35 0.000190571
15 *365:21 *372:39 8.84331e-05
16 *365:44 *3360:A1 0
17 *365:44 *3372:A1 8.17308e-05
18 *365:44 *3390:A1 9.61205e-06
19 *365:44 *371:10 0
20 *365:44 *372:25 0.000235915
21 *365:44 *372:35 0.000594335
22 *365:44 *373:8 0
23 *3375:A2 *365:10 5.85692e-05
24 *3391:A1 *365:44 5.34818e-06
25 *3392:A3 *365:44 7.83779e-05
26 *3393:A2 *3393:A1 8.79431e-05
27 *3394:B2 *3393:A1 0.000124497
28 *3396:A1 *365:10 2.23598e-06
29 *3397:A1 *365:10 2.67362e-05
30 *3397:A2 *365:10 0
31 *3398:I *365:10 5.13352e-06
32 *3399:A2 *3399:B2 2.31627e-05
33 *3474:CLK *3399:B2 5.77353e-05
34 *3476:D *3399:B2 3.75371e-05
35 *3566:I *3393:A1 2.37976e-05
36 *3566:I *365:44 0.000401099
37 *126:35 *365:10 0.000406043
38 *126:43 *3399:B2 0.000134636
39 *126:43 *365:10 0.000264158
40 *126:50 *3399:B2 8.55242e-05
41 *298:12 *365:44 5.9087e-05
42 *312:6 *365:44 0.000296595
43 *327:111 *3399:B2 6.58185e-05
*RES
1 *3576:Z *365:10 13.864 
2 *365:10 *3399:B2 11.052 
3 *365:10 *365:21 0.684 
4 *365:21 *3395:A4 9 
5 *365:21 *365:44 20.416 
6 *365:44 *3394:A2 4.5 
7 *365:44 *3393:A1 6.248 
*END

*D_NET *366 0.00699444
*CONN
*I *3576:I I *D gf180mcu_fd_sc_mcu7t5v0__buf_2
*I *3383:A2 I *D gf180mcu_fd_sc_mcu7t5v0__aoi22_1
*I *3388:A2 I *D gf180mcu_fd_sc_mcu7t5v0__nand2_1
*I *3389:A1 I *D gf180mcu_fd_sc_mcu7t5v0__oai31_1
*I *3577:Z O *D gf180mcu_fd_sc_mcu7t5v0__clkbuf_2
*CAP
1 *3576:I 0
2 *3383:A2 0.000352532
3 *3388:A2 0
4 *3389:A1 0.00021351
5 *3577:Z 0.000138598
6 *366:32 0.000988847
7 *366:16 0.00121584
8 *366:12 0.000226566
9 *3383:A2 *3382:A1 7.83779e-05
10 *3383:A2 *3383:A1 0.000372609
11 *3389:A1 *371:10 0.000169757
12 *3389:A1 *371:16 3.49778e-05
13 *366:32 *3366:A1 0.00018429
14 *366:32 *370:8 0.000298622
15 *366:32 *371:25 3.00299e-05
16 *366:32 *371:31 0.000144988
17 *3370:I *3383:A2 8.34506e-05
18 *3370:I *366:16 4.49126e-05
19 *3375:A2 *366:12 0.000300828
20 *3376:B *366:12 0.000193933
21 *3376:B *366:16 1.5015e-05
22 *3382:A2 *3383:A2 8.73421e-05
23 *3385:A1 *366:32 0.000154762
24 *3387:A1 *3389:A1 2.6126e-05
25 *3387:B *3389:A1 2.6126e-05
26 *3389:A2 *3389:A1 0.000136925
27 *3397:A1 *366:12 5.89191e-05
28 *3397:A1 *366:32 0.000158743
29 *3398:I *366:32 5.23469e-05
30 *3474:CLK *3389:A1 0.000281255
31 *3474:CLK *366:32 4.59469e-05
32 *3577:I *366:12 0.000206333
33 *126:35 *366:12 0.000150074
34 *297:10 *366:32 0.000137785
35 *300:16 *3383:A2 3.84145e-06
36 *300:16 *366:12 6.80238e-06
37 *300:16 *366:16 1.15275e-05
38 *300:16 *366:32 1.58383e-05
39 *332:16 *3389:A1 5.35814e-05
40 *332:16 *366:32 6.73926e-05
41 *332:20 *3389:A1 0
42 *365:10 *366:12 0.000225092
*RES
1 *3577:Z *366:12 15.932 
2 *366:12 *366:16 0.76 
3 *366:16 *366:32 15.688 
4 *366:32 *3389:A1 15.78 
5 *366:32 *3388:A2 4.5 
6 *366:16 *3383:A2 7.312 
7 *366:12 *3576:I 4.5 
*END

*D_NET *367 0.000509377
*CONN
*I *3502:D I *D gf180mcu_fd_sc_mcu7t5v0__dffrnq_1
*I *3272:Z O *D gf180mcu_fd_sc_mcu7t5v0__mux2_2
*CAP
1 *3502:D 0.000162409
2 *3272:Z 0.000162409
3 *3502:D *3272:I1 0.000139333
4 *3502:D *932:25 4.52262e-05
*RES
1 *3272:Z *3502:D 10.368 
*END

*D_NET *368 0.000608923
*CONN
*I *3503:D I *D gf180mcu_fd_sc_mcu7t5v0__dffrnq_1
*I *3273:Z O *D gf180mcu_fd_sc_mcu7t5v0__mux2_2
*CAP
1 *3503:D 0.000150479
2 *3273:Z 0.000150479
3 *3503:D *3273:I1 0.000307966
*RES
1 *3273:Z *3503:D 10.216 
*END

*D_NET *369 0.00201267
*CONN
*I *3550:I I *D gf180mcu_fd_sc_mcu7t5v0__dlyc_1
*I *3477:Q O *D gf180mcu_fd_sc_mcu7t5v0__dffrnq_1
*CAP
1 *3550:I 0.000264368
2 *3477:Q 0.000264368
3 *3550:I *3242:A2 0.000142809
4 *3245:I *3550:I 0.000255722
5 *3477:CLK *3550:I 9.33798e-05
6 *3515:D *3550:I 0.000259761
7 *233:12 *3550:I 0.000698514
8 *343:266 *3550:I 3.37485e-05
*RES
1 *3477:Q *3550:I 21.496 
*END

*D_NET *370 0.00787318
*CONN
*I *3371:A1 I *D gf180mcu_fd_sc_mcu7t5v0__or2_1
*I *3396:A2 I *D gf180mcu_fd_sc_mcu7t5v0__nand4_1
*I *3367:A1 I *D gf180mcu_fd_sc_mcu7t5v0__nand4_1
*I *3358:A1 I *D gf180mcu_fd_sc_mcu7t5v0__nand2_1
*I *3383:A1 I *D gf180mcu_fd_sc_mcu7t5v0__aoi22_1
*I *3382:A1 I *D gf180mcu_fd_sc_mcu7t5v0__nor2_1
*I *3366:A1 I *D gf180mcu_fd_sc_mcu7t5v0__nand2_1
*I *3473:Q O *D gf180mcu_fd_sc_mcu7t5v0__dffrnq_1
*CAP
1 *3371:A1 0
2 *3396:A2 0
3 *3367:A1 0
4 *3358:A1 0.000434614
5 *3383:A1 8.8068e-05
6 *3382:A1 1.8801e-05
7 *3366:A1 2.64576e-05
8 *3473:Q 0.000305389
9 *370:59 0.000590427
10 *370:53 0.000531915
11 *370:43 0.000439901
12 *370:23 0.000311738
13 *370:19 0.000345906
14 *370:8 0.000409085
15 *3358:A1 *387:10 1.20079e-05
16 *3366:A1 *371:25 0.000369746
17 *370:8 *371:16 0.00017665
18 *370:8 *371:25 5.94067e-05
19 *370:19 *371:16 0
20 *370:43 *371:25 3.14377e-05
21 *370:53 *371:25 8.55819e-05
22 *370:53 *371:31 0.000362176
23 *370:53 *371:37 7.20381e-05
24 *370:59 *371:37 0.000205682
25 *3358:A2 *3358:A1 3.08902e-05
26 *3383:A2 *3382:A1 7.83779e-05
27 *3383:A2 *3383:A1 0.000372609
28 *3383:B1 *3382:A1 1.02578e-05
29 *3383:B1 *3383:A1 9.75595e-05
30 *3389:B *370:8 3.38444e-05
31 *3396:A1 *370:59 0.000137785
32 *3397:A2 *370:53 0.000187982
33 *3397:A2 *370:59 3.00299e-05
34 *3474:CLK *370:8 0
35 *293:16 *370:59 3.73535e-05
36 *297:10 *3366:A1 0.000137776
37 *297:10 *370:8 2.6126e-05
38 *300:16 *3382:A1 8.0352e-06
39 *332:20 *370:19 0.000235808
40 *332:20 *370:23 0.0010888
41 *365:10 *370:53 0
42 *366:32 *3366:A1 0.00018429
43 *366:32 *370:8 0.000298622
*RES
1 *3473:Q *370:8 7.084 
2 *370:8 *3366:A1 5.488 
3 *370:8 *370:19 5.184 
4 *370:19 *370:23 7.16 
5 *370:23 *3382:A1 4.728 
6 *370:23 *3383:A1 5.716 
7 *370:19 *370:43 4.88 
8 *370:43 *370:53 3.724 
9 *370:53 *370:59 1.748 
10 *370:59 *3358:A1 7.312 
11 *370:59 *3367:A1 4.5 
12 *370:53 *3396:A2 4.5 
13 *370:43 *3371:A1 4.5 
*END

*D_NET *371 0.0102152
*CONN
*I *3388:A1 I *D gf180mcu_fd_sc_mcu7t5v0__nand2_1
*I *3366:A2 I *D gf180mcu_fd_sc_mcu7t5v0__nand2_1
*I *3396:A3 I *D gf180mcu_fd_sc_mcu7t5v0__nand4_1
*I *3367:A2 I *D gf180mcu_fd_sc_mcu7t5v0__nand4_1
*I *3360:A1 I *D gf180mcu_fd_sc_mcu7t5v0__nand2_1
*I *3371:A2 I *D gf180mcu_fd_sc_mcu7t5v0__or2_1
*I *3474:Q O *D gf180mcu_fd_sc_mcu7t5v0__dffrnq_1
*CAP
1 *3388:A1 0
2 *3366:A2 0
3 *3396:A3 0
4 *3367:A2 0
5 *3360:A1 0.00077647
6 *3371:A2 0
7 *3474:Q 0.00125771
8 *371:37 0.000930159
9 *371:31 0.000429077
10 *371:25 0.000386966
11 *371:16 0.000357345
12 *371:10 0.00150348
13 *3360:A1 *3367:A3 0.00182138
14 *3360:A1 *3372:A1 7.83779e-05
15 *3360:A1 *373:8 8.15645e-05
16 *371:10 *372:25 0
17 *371:31 *3367:A4 1.5015e-05
18 *371:37 *3367:A4 0.000108549
19 *3366:A1 *371:25 0.000369746
20 *3389:A1 *371:10 0.000169757
21 *3389:A1 *371:16 3.49778e-05
22 *3398:I *371:31 5.14419e-05
23 *3399:A2 *3360:A1 0
24 *3399:B1 *371:37 0
25 *3473:RN *371:10 0.000308823
26 *3473:RN *371:16 4.19396e-05
27 *3474:RN *371:10 0
28 *3474:CLK *371:31 0
29 *3475:D *371:10 0
30 *126:43 *3360:A1 0.00022713
31 *329:335 *371:10 6.64109e-05
32 *332:16 *371:10 0
33 *338:62 *3360:A1 3.08902e-05
34 *365:10 *3360:A1 0
35 *365:21 *3360:A1 0
36 *365:44 *3360:A1 0
37 *365:44 *371:10 0
38 *366:32 *371:25 3.00299e-05
39 *366:32 *371:31 0.000144988
40 *370:8 *371:16 0.00017665
41 *370:8 *371:25 5.94067e-05
42 *370:19 *371:16 0
43 *370:43 *371:25 3.14377e-05
44 *370:53 *371:25 8.55819e-05
45 *370:53 *371:31 0.000362176
46 *370:53 *371:37 7.20381e-05
47 *370:59 *371:37 0.000205682
*RES
1 *3474:Q *371:10 16.448 
2 *371:10 *371:16 6.324 
3 *371:16 *3371:A2 4.5 
4 *371:16 *371:25 1.52 
5 *371:25 *371:31 2.964 
6 *371:31 *371:37 1.748 
7 *371:37 *3360:A1 20.644 
8 *371:37 *3367:A2 4.5 
9 *371:31 *3396:A3 4.5 
10 *371:25 *3366:A2 4.5 
11 *371:10 *3388:A1 9 
*END

*D_NET *372 0.00667475
*CONN
*I *3390:A1 I *D gf180mcu_fd_sc_mcu7t5v0__xor2_1
*I *3372:A2 I *D gf180mcu_fd_sc_mcu7t5v0__nor3_1
*I *3395:A2 I *D gf180mcu_fd_sc_mcu7t5v0__nor4_1
*I *3396:A4 I *D gf180mcu_fd_sc_mcu7t5v0__nand4_1
*I *3367:A4 I *D gf180mcu_fd_sc_mcu7t5v0__nand4_1
*I *3128:I I *D gf180mcu_fd_sc_mcu7t5v0__clkinv_1
*I *3475:Q O *D gf180mcu_fd_sc_mcu7t5v0__dffrnq_1
*CAP
1 *3390:A1 2.25881e-05
2 *3372:A2 0
3 *3395:A2 0
4 *3396:A4 0
5 *3367:A4 0.000142935
6 *3128:I 0.000200189
7 *3475:Q 0
8 *372:39 0.00029524
9 *372:35 0.000460661
10 *372:29 0.000530765
11 *372:25 0.000555729
12 *372:4 0.000510919
13 *372:35 *3372:A1 0.000201957
14 *3372:A3 *372:29 0.000120443
15 *3372:A3 *372:35 5.1289e-05
16 *3390:A2 *3390:A1 1.2339e-05
17 *3390:A2 *372:29 2.9378e-06
18 *3391:A2 *372:25 2.54607e-05
19 *3392:A3 *372:29 1.44832e-05
20 *3394:A1 *3128:I 7.54503e-05
21 *3394:A1 *372:25 0.000505847
22 *3394:B1 *3128:I 1.03097e-05
23 *3395:A3 *372:35 0
24 *3398:I *372:39 5.40492e-05
25 *3399:A2 *372:35 0
26 *3399:B1 *3367:A4 4.82663e-05
27 *3474:CLK *3367:A4 0
28 *3475:D *372:25 0.000461813
29 *298:12 *372:25 3.92697e-06
30 *298:12 *372:29 0.000139333
31 *309:10 *372:25 0
32 *312:6 *3390:A1 2.9378e-06
33 *312:6 *372:29 5.40519e-05
34 *329:324 *3128:I 0.000104176
35 *329:324 *372:25 9.88736e-06
36 *329:335 *372:25 3.83835e-06
37 *332:16 *372:25 4.84492e-05
38 *365:10 *372:39 0.000762046
39 *365:21 *372:35 0.000190571
40 *365:21 *372:39 8.84331e-05
41 *365:44 *3390:A1 9.61205e-06
42 *365:44 *372:25 0.000235915
43 *365:44 *372:35 0.000594335
44 *371:10 *372:25 0
45 *371:31 *3367:A4 1.5015e-05
46 *371:37 *3367:A4 0.000108549
*RES
1 *3475:Q *372:4 4.5 
2 *372:4 *3128:I 15.02 
3 *372:4 *372:25 12.04 
4 *372:25 *372:29 1.976 
5 *372:29 *372:35 7.844 
6 *372:35 *372:39 6.552 
7 *372:39 *3367:A4 5.64 
8 *372:39 *3396:A4 4.5 
9 *372:35 *3395:A2 9 
10 *372:29 *3372:A2 4.5 
11 *372:25 *3390:A1 4.728 
*END

*D_NET *373 0.0069064
*CONN
*I *3560:I I *D gf180mcu_fd_sc_mcu7t5v0__dlyc_1
*I *3372:A1 I *D gf180mcu_fd_sc_mcu7t5v0__nor3_1
*I *3367:A3 I *D gf180mcu_fd_sc_mcu7t5v0__nand4_1
*I *3476:Q O *D gf180mcu_fd_sc_mcu7t5v0__dffrnq_1
*CAP
1 *3560:I 0.000500203
2 *3372:A1 0.000324414
3 *3367:A3 0.00021408
4 *3476:Q 0
5 *373:8 0.00078561
6 *373:6 0.000747319
7 *3360:A1 *3367:A3 0.00182138
8 *3360:A1 *3372:A1 7.83779e-05
9 *3360:A1 *373:8 8.15645e-05
10 *3365:A1 *3560:I 7.52295e-05
11 *3399:A1 *3367:A3 0.000237928
12 *3399:A1 *3560:I 0.000104687
13 *3399:A1 *373:8 0.000221728
14 *3399:A2 *3372:A1 0
15 *3399:B1 *3367:A3 0.000106165
16 *3469:D *3560:I 0
17 *3476:RN *3372:A1 0
18 *3476:RN *3560:I 0.000157224
19 *3476:RN *373:8 0.000150656
20 *328:36 *3560:I 0
21 *329:307 *3560:I 0.00101614
22 *365:44 *3372:A1 8.17308e-05
23 *365:44 *373:8 0
24 *372:35 *3372:A1 0.000201957
*RES
1 *3476:Q *373:6 9 
2 *373:6 *373:8 2.204 
3 *373:8 *3367:A3 13.484 
4 *373:8 *3372:A1 11.508 
5 *373:6 *3560:I 13.864 
*END

*D_NET *374 0.0247207
*CONN
*I *3344:A1 I *D gf180mcu_fd_sc_mcu7t5v0__and2_1
*I *3236:B I *D gf180mcu_fd_sc_mcu7t5v0__oai211_1
*I *3234:A1 I *D gf180mcu_fd_sc_mcu7t5v0__and2_1
*I *3229:A1 I *D gf180mcu_fd_sc_mcu7t5v0__aoi211_1
*I *3243:A1 I *D gf180mcu_fd_sc_mcu7t5v0__aoi211_1
*I *3228:A1 I *D gf180mcu_fd_sc_mcu7t5v0__oai21_1
*I *3268:A1 I *D gf180mcu_fd_sc_mcu7t5v0__aoi21_1
*I *3454:Q O *D gf180mcu_fd_sc_mcu7t5v0__dffsnq_1
*CAP
1 *3344:A1 0
2 *3236:B 0.000336444
3 *3234:A1 0
4 *3229:A1 0
5 *3243:A1 0
6 *3228:A1 0.000225947
7 *3268:A1 0.00142183
8 *3454:Q 0
9 *374:90 0.0014636
10 *374:75 0.00123103
11 *374:66 0.000588936
12 *374:31 0.0014532
13 *374:25 0.00133181
14 *374:4 0.00201145
15 *3228:A1 *3222:A1 0.000267339
16 *3228:A1 *3226:A2 0.000193448
17 *3228:A1 *379:44 9.26705e-05
18 *3236:B *3517:D 0.000271416
19 *3268:A1 *3169:A1 0.000400401
20 *3268:A1 *3254:A1 0.000353949
21 *3268:A1 *3353:I1 8.21884e-05
22 *3268:A1 *417:8 0
23 *374:25 *3272:I1 2.03665e-05
24 *374:25 *3518:D 0
25 *374:25 *426:10 0.000158263
26 *374:31 *3277:I1 6.3307e-05
27 *374:31 *3277:I2 0
28 *374:31 *379:44 1.02699e-05
29 *374:31 *426:10 0
30 *374:31 *428:8 0
31 *374:66 *3222:A1 2.71882e-05
32 *374:66 *3243:C 2.9378e-06
33 *374:66 *3289:A1 3.64096e-05
34 *374:75 *3243:C 2.9378e-06
35 *374:90 *3126:I 0
36 *374:90 *3243:C 4.63375e-05
37 *374:90 *3325:I1 0.000162705
38 *374:90 *3325:S 0.000377038
39 *374:90 *3517:D 0.000704403
40 *374:90 *390:6 2.96977e-05
41 *3224:A2 *374:66 6.79912e-06
42 *3228:A2 *3228:A1 2.05156e-05
43 *3228:B *3228:A1 7.49908e-05
44 *3229:A2 *374:75 0.000310356
45 *3229:B *374:66 3.42838e-05
46 *3229:B *374:75 8.34204e-05
47 *3229:B *374:90 3.73627e-05
48 *3229:C *374:90 4.25026e-05
49 *3234:A2 *3236:B 0.000179609
50 *3234:A2 *374:90 1.5015e-05
51 *3235:A3 *3236:B 4.2784e-05
52 *3236:A1 *3236:B 2.96621e-05
53 *3238:A2 *3236:B 5.76373e-06
54 *3247:A1 *3236:B 0.000239134
55 *3247:A2 *3236:B 0.000204217
56 *3247:B *3236:B 4.07251e-05
57 *3254:A2 *3268:A1 5.50822e-06
58 *3288:A2 *374:66 0
59 *3325:I0 *374:90 7.74053e-05
60 *3336:A2 *374:25 4.97386e-06
61 *3337:B *374:25 7.83779e-05
62 *3340:A2 *3268:A1 0.00124967
63 *3340:B *3268:A1 0.000150074
64 *3344:A2 *374:25 0.000588752
65 *3344:A2 *374:31 6.73926e-05
66 *3454:D *374:25 0.000566893
67 *3454:SETN *374:25 0
68 *3479:RN *3228:A1 6.81646e-05
69 *3479:RN *374:31 0.000273364
70 *3481:D *374:31 0.00140357
71 *3498:D *374:90 1.82069e-05
72 *3505:D *3268:A1 0.000479306
73 *3506:D *3268:A1 0
74 *3511:D *374:90 0.00114337
75 *3514:D *374:90 0
76 *3517:CLK *3236:B 3.18265e-05
77 *3519:CLK *374:31 4.04248e-05
78 *3531:I *374:66 0.000346697
79 *3539:I *374:31 2.67803e-05
80 *3539:I *374:66 0.000201125
81 *144:33 *3268:A1 0
82 *185:14 *3236:B 2.67896e-05
83 *195:14 *3236:B 0.000237568
84 *219:17 *374:66 6.38438e-05
85 *219:32 *374:66 0
86 *222:12 *3228:A1 0.0003847
87 *222:12 *374:66 7.78312e-05
88 *322:8 *374:31 0.000214589
89 *322:23 *3228:A1 5.14116e-06
90 *327:39 *374:25 0
91 *327:39 *374:31 7.3535e-05
92 *329:61 *3268:A1 0.00113405
93 *330:42 *3268:A1 0.000238095
94 *330:44 *3268:A1 0.000514812
95 *330:44 *374:25 0.000193185
*RES
1 *3454:Q *374:4 4.5 
2 *374:4 *3268:A1 27.94 
3 *374:4 *374:25 16.144 
4 *374:25 *374:31 12.708 
5 *374:31 *3228:A1 12.268 
6 *374:31 *374:66 9.06 
7 *374:66 *3243:A1 4.5 
8 *374:66 *374:75 1.216 
9 *374:75 *3229:A1 4.5 
10 *374:75 *374:90 10.564 
11 *374:90 *3234:A1 4.5 
12 *374:90 *3236:B 17.376 
13 *374:25 *3344:A1 4.5 
*END

*D_NET *375 0.0108996
*CONN
*I *3310:I1 I *D gf180mcu_fd_sc_mcu7t5v0__mux2_2
*I *3308:A2 I *D gf180mcu_fd_sc_mcu7t5v0__nand4_1
*I *3294:A2 I *D gf180mcu_fd_sc_mcu7t5v0__nand4_1
*I *3297:A1 I *D gf180mcu_fd_sc_mcu7t5v0__nand2_1
*I *3304:A2 I *D gf180mcu_fd_sc_mcu7t5v0__nand3_1
*I *3299:A1 I *D gf180mcu_fd_sc_mcu7t5v0__oai21_1
*I *3293:A2 I *D gf180mcu_fd_sc_mcu7t5v0__nand2_1
*I *3482:Q O *D gf180mcu_fd_sc_mcu7t5v0__dffrnq_1
*CAP
1 *3310:I1 0.000740968
2 *3308:A2 0.000184314
3 *3294:A2 0
4 *3297:A1 2.35258e-05
5 *3304:A2 3.32323e-05
6 *3299:A1 7.79075e-05
7 *3293:A2 0
8 *3482:Q 0.000446805
9 *375:66 0.000433005
10 *375:35 0.00022997
11 *375:31 0.000566568
12 *375:25 0.000804306
13 *375:19 0.00103106
14 *375:12 0.00060549
15 *3308:A2 *3294:A4 8.69929e-05
16 *3308:A2 *3308:A3 6.44429e-05
17 *3310:I1 *3555:I 0
18 *375:12 *376:10 0.000783234
19 *375:66 *3132:I 9.45638e-06
20 *375:66 *3555:I 0
21 *3297:A2 *375:31 3.83192e-05
22 *3297:A2 *375:35 2.23783e-05
23 *3298:A1 *375:12 3.78441e-05
24 *3299:A2 *3299:A1 6.14317e-05
25 *3299:A2 *3304:A2 2.03965e-05
26 *3299:B *3299:A1 2.14729e-05
27 *3299:B *3304:A2 6.48311e-06
28 *3300:I *375:35 0
29 *3301:A1 *3310:I1 1.26081e-06
30 *3301:A1 *375:19 4.22029e-06
31 *3301:A1 *375:31 0
32 *3301:A1 *375:66 0
33 *3301:A2 *3310:I1 2.57058e-06
34 *3303:A1 *375:31 1.93354e-05
35 *3303:A1 *375:66 0.000107777
36 *3303:A2 *375:31 9.17202e-06
37 *3307:A1 *3310:I1 0.0002142
38 *3307:A1 *375:66 0
39 *3307:A2 *3310:I1 0
40 *3309:A2 *375:25 3.93428e-05
41 *3309:A2 *375:66 0.00018401
42 *3477:D *3310:I1 9.6504e-05
43 *3478:D *375:12 0.000193879
44 *3482:RN *375:12 3.87828e-05
45 *3483:D *3297:A1 1.93526e-05
46 *3483:D *375:31 0.000542853
47 *3484:CLK *3297:A1 7.3227e-05
48 *3484:CLK *375:35 0.000317938
49 *3485:D *3308:A2 9.85618e-05
50 *3486:D *3310:I1 0.000149579
51 *3486:CLK *3310:I1 0.000229423
52 *255:14 *375:25 0.000384885
53 *265:8 *375:66 0.000158878
54 *267:8 *375:25 0.000470947
55 *269:12 *375:12 5.08053e-05
56 *269:12 *375:31 3.15814e-05
57 *343:272 *3308:A2 8.04367e-06
58 *343:272 *375:25 0
59 *343:272 *375:66 0.000514812
60 *343:346 *3310:I1 0
61 *343:346 *375:12 0.000326266
62 *343:346 *375:19 0
63 *343:350 *375:12 0.000281792
*RES
1 *3482:Q *375:12 18.972 
2 *375:12 *3293:A2 4.5 
3 *375:12 *375:19 0.684 
4 *375:19 *375:25 11.356 
5 *375:25 *375:31 7.388 
6 *375:31 *375:35 5.488 
7 *375:35 *3299:A1 5.108 
8 *375:35 *3304:A2 4.728 
9 *375:31 *3297:A1 9.228 
10 *375:25 *375:66 7.388 
11 *375:66 *3294:A2 9 
12 *375:66 *3308:A2 10.14 
13 *375:19 *3310:I1 10.276 
*END

*D_NET *376 0.00735809
*CONN
*I *3293:A1 I *D gf180mcu_fd_sc_mcu7t5v0__nand2_1
*I *3294:A1 I *D gf180mcu_fd_sc_mcu7t5v0__nand4_1
*I *3308:A1 I *D gf180mcu_fd_sc_mcu7t5v0__nand4_1
*I *3132:I I *D gf180mcu_fd_sc_mcu7t5v0__clkinv_1
*I *3304:A1 I *D gf180mcu_fd_sc_mcu7t5v0__nand3_1
*I *3483:Q O *D gf180mcu_fd_sc_mcu7t5v0__dffrnq_1
*CAP
1 *3293:A1 0
2 *3294:A1 3.28034e-05
3 *3308:A1 0
4 *3132:I 7.60195e-05
5 *3304:A1 0.000177813
6 *3483:Q 0.000323952
7 *376:27 0.00013954
8 *376:25 0.000310637
9 *376:14 0.000503591
10 *376:10 0.000435416
11 *3132:I *3555:I 0.000128044
12 *376:25 *377:51 1.2018e-05
13 *3297:A2 *3304:A1 0.00022651
14 *3298:A1 *376:10 5.48085e-05
15 *3299:B *3304:A1 1.72912e-05
16 *3302:A2 *376:14 8.84331e-05
17 *3303:A1 *376:25 0.00018277
18 *3303:A1 *376:27 9.935e-05
19 *3303:A2 *3304:A1 6.12935e-05
20 *3303:B2 *3304:A1 3.08902e-05
21 *3303:B2 *376:25 5.4634e-05
22 *3308:A4 *376:25 0
23 *3309:A1 *376:25 4.17249e-05
24 *3483:D *3304:A1 9.04162e-06
25 *3485:D *376:25 0.000169363
26 *3485:D *376:27 0.000299156
27 *265:8 *3132:I 6.49724e-05
28 *267:8 *376:10 0.00083243
29 *267:8 *376:14 0.00134977
30 *267:32 *3304:A1 0
31 *269:12 *376:10 0
32 *269:12 *376:14 0
33 *271:8 *376:14 0.00083929
34 *343:346 *376:10 3.83835e-06
35 *375:12 *376:10 0.000783234
36 *375:66 *3132:I 9.45638e-06
*RES
1 *3483:Q *376:10 13.104 
2 *376:10 *376:14 7.768 
3 *376:14 *3304:A1 6.172 
4 *376:14 *376:25 2.052 
5 *376:25 *376:27 0.988 
6 *376:27 *3132:I 14.488 
7 *376:27 *3308:A1 4.5 
8 *376:25 *3294:A1 4.728 
9 *376:10 *3293:A1 9 
*END

*D_NET *377 0.00737285
*CONN
*I *3308:A3 I *D gf180mcu_fd_sc_mcu7t5v0__nand4_1
*I *3294:A3 I *D gf180mcu_fd_sc_mcu7t5v0__nand4_1
*I *3305:A1 I *D gf180mcu_fd_sc_mcu7t5v0__nand2_1
*I *3306:A1 I *D gf180mcu_fd_sc_mcu7t5v0__oai21_1
*I *3313:I1 I *D gf180mcu_fd_sc_mcu7t5v0__mux2_2
*I *3484:Q O *D gf180mcu_fd_sc_mcu7t5v0__dffrnq_1
*CAP
1 *3308:A3 0.000168316
2 *3294:A3 0
3 *3305:A1 3.27548e-05
4 *3306:A1 0.000151591
5 *3313:I1 0.000743982
6 *3484:Q 0.000457939
7 *377:51 0.000542101
8 *377:36 0.000456567
9 *377:25 0.000278372
10 *377:12 0.00127867
11 *3308:A3 *3294:A4 5.4634e-05
12 *377:51 *3294:A4 3.08902e-05
13 *3305:A2 *3305:A1 0
14 *3306:B *3306:A1 0.000366542
15 *3306:B *377:12 4.6818e-05
16 *3306:B *377:25 0.000145096
17 *3306:B *377:36 0.000188292
18 *3308:A2 *3308:A3 6.44429e-05
19 *3308:A4 *3305:A1 0
20 *3309:B1 *377:51 0.000106782
21 *3309:B2 *377:51 0.000460419
22 *3313:S *3313:I1 2.57058e-06
23 *3484:D *3306:A1 0.000386421
24 *3484:RN *3313:I1 0
25 *3484:RN *377:12 0.000231948
26 *3484:RN *377:25 0.000342519
27 *3484:RN *377:36 0.00021548
28 *3484:CLK *3306:A1 0
29 *3485:D *3308:A3 8.95634e-05
30 *3485:D *377:51 0.000376901
31 *3488:D *3313:I1 1.02578e-05
32 *267:12 *377:51 5.40431e-05
33 *343:272 *3308:A3 4.07251e-05
34 *343:272 *377:36 9.45347e-06
35 *343:272 *377:51 2.67391e-05
36 *343:293 *3313:I1 0
37 *343:297 *3313:I1 0
38 *376:25 *377:51 1.2018e-05
*RES
1 *3484:Q *377:12 17.148 
2 *377:12 *3313:I1 8.832 
3 *377:12 *377:25 5.564 
4 *377:25 *3306:A1 11.204 
5 *377:25 *377:36 0.836 
6 *377:36 *3305:A1 9.228 
7 *377:36 *377:51 7.692 
8 *377:51 *3294:A3 4.5 
9 *377:51 *3308:A3 14.64 
*END

*D_NET *378 0.00251549
*CONN
*I *3555:I I *D gf180mcu_fd_sc_mcu7t5v0__dlyc_1
*I *3294:A4 I *D gf180mcu_fd_sc_mcu7t5v0__nand4_1
*I *3485:Q O *D gf180mcu_fd_sc_mcu7t5v0__dffrnq_1
*CAP
1 *3555:I 0.000515698
2 *3294:A4 0.000152235
3 *3485:Q 7.82692e-05
4 *378:8 0.000746202
5 *3132:I *3555:I 0.000128044
6 *3303:A1 *3294:A4 0
7 *3307:A1 *3555:I 1.85245e-05
8 *3308:A2 *3294:A4 8.69929e-05
9 *3308:A3 *3294:A4 5.4634e-05
10 *3309:B1 *3294:A4 0.000380016
11 *3310:I1 *3555:I 0
12 *3312:A1 *3555:I 0
13 *3485:D *3294:A4 0.00011021
14 *3485:D *3555:I 7.6687e-05
15 *3485:D *378:8 0.000119798
16 *3486:CLK *3555:I 1.72912e-05
17 *265:8 *3555:I 0
18 *375:66 *3555:I 0
19 *377:51 *3294:A4 3.08902e-05
*RES
1 *3485:Q *378:8 9.684 
2 *378:8 *3294:A4 11.052 
3 *378:8 *3555:I 12.496 
*END

*D_NET *379 0.0142072
*CONN
*I *3222:A1 I *D gf180mcu_fd_sc_mcu7t5v0__aoi21_1
*I *3226:A1 I *D gf180mcu_fd_sc_mcu7t5v0__aoi211_1
*I *3265:A1 I *D gf180mcu_fd_sc_mcu7t5v0__aoi22_1
*I *3343:I1 I *D gf180mcu_fd_sc_mcu7t5v0__mux2_2
*I *3453:Q O *D gf180mcu_fd_sc_mcu7t5v0__dffsnq_1
*CAP
1 *3222:A1 0.000185625
2 *3226:A1 0
3 *3265:A1 0.000839504
4 *3343:I1 9.83112e-05
5 *3453:Q 0.000258069
6 *379:44 0.00153455
7 *379:23 0.00280574
8 *379:10 0.000973686
9 *3222:A1 *3226:A2 0.000382998
10 *3222:A1 *411:42 0.000523951
11 *3222:A1 *412:12 0.000324233
12 *3265:A1 *3259:A1 0.000866233
13 *3265:A1 *3273:S 0.000109188
14 *3265:A1 *3351:I1 0
15 *3343:I1 *3343:I0 4.58467e-05
16 *379:10 *3273:I0 1.28529e-05
17 *379:10 *3343:I0 0.000215438
18 *379:10 *625:14 6.25211e-05
19 *379:23 *3551:I 0
20 *379:44 *3226:B 0.000650998
21 *379:44 *3277:I1 0
22 *379:44 *3551:I 0
23 *379:44 *428:8 0.000154889
24 *379:44 *625:14 0
25 *379:44 *625:20 0
26 *3226:C *3222:A1 3.56405e-05
27 *3228:A1 *3222:A1 0.000267339
28 *3228:A1 *379:44 9.26705e-05
29 *3228:B *3222:A1 6.73834e-05
30 *3228:B *379:44 3.73627e-05
31 *3266:B2 *3265:A1 1.5961e-05
32 *3276:A1 *379:44 0
33 *3442:D *3265:A1 0
34 *3453:SETN *379:23 2.976e-05
35 *3460:CLK *3265:A1 0.000732563
36 *3464:D *379:10 7.37619e-05
37 *3479:RN *3222:A1 4.29636e-06
38 *3479:RN *379:44 0.000321823
39 *3481:D *379:44 0.000285068
40 *3519:CLK *379:44 0.000260701
41 *219:17 *3222:A1 0.000210233
42 *222:12 *3222:A1 5.87561e-06
43 *325:65 *379:23 9.20759e-05
44 *325:65 *379:44 2.23598e-06
45 *325:71 *3265:A1 0.000399191
46 *327:39 *379:44 0.000680481
47 *343:174 *379:10 0.000151374
48 *343:176 *3343:I1 0.000183434
49 *343:176 *379:10 9.34472e-05
50 *343:600 *379:23 3.23347e-05
51 *343:615 *379:23 2.17248e-05
52 *343:615 *379:44 2.8394e-05
53 *374:31 *379:44 1.02699e-05
54 *374:66 *3222:A1 2.71882e-05
*RES
1 *3453:Q *379:10 12.04 
2 *379:10 *3343:I1 10.292 
3 *379:10 *379:23 8.376 
4 *379:23 *3265:A1 21.632 
5 *379:23 *379:44 21.236 
6 *379:44 *3226:A1 4.5 
7 *379:44 *3222:A1 16.996 
*END

*D_NET *380 0.00268186
*CONN
*I *3556:I I *D gf180mcu_fd_sc_mcu7t5v0__dlyc_1
*I *3160:A1 I *D gf180mcu_fd_sc_mcu7t5v0__oai21_1
*I *3467:Q O *D gf180mcu_fd_sc_mcu7t5v0__dffrnq_1
*CAP
1 *3556:I 0.000427087
2 *3160:A1 0.000185269
3 *3467:Q 0
4 *380:6 0.000612355
5 *3556:I *3150:A1 0.00027874
6 *3556:I *3152:A2 6.74514e-05
7 *3152:B *3556:I 2.6126e-05
8 *3160:A2 *3160:A1 0.00013794
9 *3161:A2 *3160:A1 9.26705e-05
10 *3161:A2 *3556:I 2.6126e-05
11 *3468:RN *3160:A1 0.000188422
12 *3468:RN *3556:I 0.000110995
13 *3537:I *3556:I 0.000270172
14 *320:69 *3160:A1 0.000181273
15 *320:69 *3556:I 7.2647e-05
16 *327:10 *3160:A1 4.58601e-06
*RES
1 *3467:Q *380:6 9 
2 *380:6 *3160:A1 11.128 
3 *380:6 *3556:I 12.724 
*END

*D_NET *381 0.00147432
*CONN
*I *3145:I I *D gf180mcu_fd_sc_mcu7t5v0__clkinv_1
*I *3150:A2 I *D gf180mcu_fd_sc_mcu7t5v0__xnor2_1
*I *3151:A2 I *D gf180mcu_fd_sc_mcu7t5v0__xor2_1
*I *3468:Q O *D gf180mcu_fd_sc_mcu7t5v0__dffrnq_1
*CAP
1 *3145:I 0.000259535
2 *3150:A2 0.000144446
3 *3151:A2 3.28034e-05
4 *3468:Q 2.39632e-05
5 *381:8 0.00033962
6 *381:6 0.000445869
7 *3150:A2 *3149:A1 1.02578e-05
8 *3150:A2 *421:68 8.23448e-05
9 *3151:A2 *3150:A1 0
10 *381:8 *3149:A1 1.20079e-05
11 *3152:B *3150:A2 5.6425e-05
12 *3152:B *381:8 1.52691e-05
13 *3361:A2 *3145:I 5.75752e-06
14 *3468:RN *381:8 4.60244e-05
*RES
1 *3468:Q *381:6 4.728 
2 *381:6 *381:8 1.14 
3 *381:8 *3151:A2 4.728 
4 *381:8 *3150:A2 5.488 
5 *381:6 *3145:I 6.02 
*END

*D_NET *382 0.00836259
*CONN
*I *3362:A2 I *D gf180mcu_fd_sc_mcu7t5v0__nor2_1
*I *3146:A1 I *D gf180mcu_fd_sc_mcu7t5v0__nor2_1
*I *3147:A1 I *D gf180mcu_fd_sc_mcu7t5v0__xnor2_1
*I *3469:Q O *D gf180mcu_fd_sc_mcu7t5v0__dffrnq_1
*CAP
1 *3362:A2 0.000753695
2 *3146:A1 0
3 *3147:A1 0.000189817
4 *3469:Q 0
5 *382:14 0.00116218
6 *382:4 0.00172605
7 *3147:A1 *3147:A2 0.000439452
8 *3147:A1 *422:12 5.72229e-05
9 *382:14 *383:8 1.69448e-05
10 *382:14 *418:23 9.17202e-06
11 *382:14 *422:12 0.000119534
12 *3154:A1 *382:14 7.83779e-05
13 *3157:A1 *3147:A1 4.78829e-05
14 *3157:A1 *382:14 3.19219e-05
15 *3157:B *382:14 0.00121926
16 *3166:A1 *382:14 0.000650998
17 *3166:A2 *3147:A1 7.33042e-05
18 *3166:B *382:14 0.000301553
19 *3475:CLK *3362:A2 4.3922e-05
20 *3475:CLK *382:14 1.01183e-05
21 *144:33 *382:14 0.000786941
22 *159:10 *382:14 0.000348973
23 *328:12 *382:14 5.73975e-05
24 *329:294 *3147:A1 0.000237878
*RES
1 *3469:Q *382:4 4.5 
2 *382:4 *382:14 15.748 
3 *382:14 *3147:A1 11.584 
4 *382:14 *3146:A1 9 
5 *382:4 *3362:A2 18.516 
*END

*D_NET *383 0.00255169
*CONN
*I *3155:A2 I *D gf180mcu_fd_sc_mcu7t5v0__xor2_1
*I *3154:A2 I *D gf180mcu_fd_sc_mcu7t5v0__nor2_1
*I *3364:A2 I *D gf180mcu_fd_sc_mcu7t5v0__nor2_1
*I *3470:Q O *D gf180mcu_fd_sc_mcu7t5v0__dffrnq_1
*CAP
1 *3155:A2 0.00020812
2 *3154:A2 0
3 *3364:A2 0.000333807
4 *3470:Q 8.76452e-05
5 *383:10 0.00045934
6 *383:8 0.000421298
7 *3154:A1 *3155:A2 0.000453567
8 *3154:A1 *383:10 0.000262996
9 *3168:A2 *3155:A2 0
10 *3168:A2 *3364:A2 0
11 *3168:A2 *383:10 0
12 *328:12 *383:8 0.000307974
13 *382:14 *383:8 1.69448e-05
*RES
1 *3470:Q *383:8 9.836 
2 *383:8 *383:10 1.14 
3 *383:10 *3364:A2 11.356 
4 *383:10 *3154:A2 9 
5 *383:8 *3155:A2 10.444 
*END

*D_NET *384 0.00830082
*CONN
*I *3356:I0 I *D gf180mcu_fd_sc_mcu7t5v0__mux2_2
*I *3272:I1 I *D gf180mcu_fd_sc_mcu7t5v0__mux2_2
*I *3465:Q O *D gf180mcu_fd_sc_mcu7t5v0__dffrnq_1
*CAP
1 *3356:I0 0.000447495
2 *3272:I1 0.00181589
3 *3465:Q 0.00226338
4 *3272:I1 *3336:A1 0
5 *3272:I1 *3518:D 0.000298454
6 *3272:I1 *929:29 1.91917e-06
7 *3272:I1 *932:25 2.57058e-06
8 *3356:I0 *3273:I1 0
9 *3337:A1 *3272:I1 0.000297165
10 *3337:B *3272:I1 3.70827e-05
11 *3356:S *3356:I0 1.72918e-05
12 *3449:CLK *3272:I1 6.44448e-05
13 *3465:RN *3356:I0 7.74243e-06
14 *3502:D *3272:I1 0.000139333
15 *3534:I *3272:I1 0.000758125
16 *320:25 *3356:I0 0
17 *327:10 *3272:I1 0.000255714
18 *329:191 *3272:I1 0.00102856
19 *329:195 *3272:I1 0
20 *329:195 *3356:I0 0.000122
21 *329:201 *3356:I0 0.000723293
22 *374:25 *3272:I1 2.03665e-05
*RES
1 *3465:Q *3272:I1 33.276 
2 *3465:Q *3356:I0 21.952 
*END

*D_NET *385 0.00749259
*CONN
*I *3273:I1 I *D gf180mcu_fd_sc_mcu7t5v0__mux2_2
*I *3357:I0 I *D gf180mcu_fd_sc_mcu7t5v0__mux2_2
*I *3466:Q O *D gf180mcu_fd_sc_mcu7t5v0__dffrnq_1
*CAP
1 *3273:I1 0.00134582
2 *3357:I0 0.000139918
3 *3466:Q 8.29703e-05
4 *385:8 0.00156871
5 *3273:I1 *3273:I0 0
6 *3273:I1 *3275:A2 0.00119247
7 *3273:I1 *3520:D 0.000495697
8 *3273:I1 *625:14 0.000941963
9 *3356:I0 *3273:I1 0
10 *3460:CLK *3273:I1 0
11 *3465:D *3273:I1 7.57767e-05
12 *3465:D *385:8 0.000369763
13 *3465:CLK *3357:I0 8.92063e-06
14 *3503:D *3273:I1 0.000307966
15 *3519:RN *3273:I1 2.05156e-05
16 *3529:I *3273:I1 0
17 *3529:I *385:8 5.09937e-05
18 *320:25 *3273:I1 9.77285e-05
19 *320:25 *3357:I0 0.000195532
20 *327:33 *3273:I1 0.000236747
21 *343:615 *3273:I1 0.000361084
*RES
1 *3466:Q *385:8 9.988 
2 *385:8 *3357:I0 10.444 
3 *385:8 *3273:I1 22.148 
*END

*D_NET *386 0.0102444
*CONN
*I *3375:A1 I *D gf180mcu_fd_sc_mcu7t5v0__or2_1
*I *3379:A2 I *D gf180mcu_fd_sc_mcu7t5v0__nand2_1
*I *3368:A2 I *D gf180mcu_fd_sc_mcu7t5v0__nand3_1
*I *3356:I1 I *D gf180mcu_fd_sc_mcu7t5v0__mux2_2
*I *3378:A1 I *D gf180mcu_fd_sc_mcu7t5v0__xor2_1
*I *3277:S0 I *D gf180mcu_fd_sc_mcu7t5v0__mux4_1
*I *3471:Q O *D gf180mcu_fd_sc_mcu7t5v0__dffrnq_1
*CAP
1 *3375:A1 0.000105373
2 *3379:A2 5.43006e-06
3 *3368:A2 0.000320044
4 *3356:I1 0.000395694
5 *3378:A1 9.58446e-05
6 *3277:S0 0.000989225
7 *3471:Q 2.68248e-05
8 *386:51 0.000382243
9 *386:49 0.000695155
10 *386:12 0.0014557
11 *386:8 0.00076632
12 *386:6 0.000559838
13 *3277:S0 *3277:S1 3.01323e-05
14 *3277:S0 *387:22 2.31659e-05
15 *3277:S0 *391:8 4.34558e-05
16 *3368:A2 *3376:A1 0
17 *3368:A2 *387:40 0.000379283
18 *3378:A1 *391:8 7.70843e-05
19 *3356:S *3356:I1 3.73535e-05
20 *3369:B2 *3368:A2 5.86883e-05
21 *3378:A2 *3368:A2 0.000387765
22 *3378:A2 *3378:A1 4.50449e-05
23 *3379:A1 *3379:A2 8.55242e-05
24 *3379:A1 *386:49 0.000209085
25 *3380:B2 *3368:A2 1.13356e-05
26 *3381:A2 *3379:A2 8.55242e-05
27 *3381:A2 *386:49 0.000135498
28 *3466:D *3277:S0 7.88344e-05
29 *3471:D *3277:S0 2.9378e-06
30 *3471:D *3378:A1 5.83634e-05
31 *3472:D *386:12 2.35105e-05
32 *3472:D *386:49 0.000379283
33 *3472:RN *3356:I1 0
34 *3472:CLK *386:12 0.000635007
35 *3480:D *3277:S0 0.000158886
36 *3480:CLK *3277:S0 4.27914e-05
37 *3512:RN *3368:A2 0
38 *3513:D *3277:S0 4.58601e-06
39 *3513:CLK *3277:S0 0.000128373
40 *3529:I *386:6 2.22657e-05
41 *3529:I *386:49 9.0178e-05
42 *3533:I *3277:S0 1.13149e-05
43 *3533:I *3378:A1 0
44 *253:14 *3277:S0 0.000285612
45 *293:16 *3368:A2 2.71882e-05
46 *293:16 *3375:A1 0.000596622
47 *293:16 *386:51 0.000135941
48 *320:25 *3277:S0 9.16832e-05
49 *322:103 *3277:S0 6.44328e-05
50 *322:105 *3277:S0 0
51 *329:207 *3356:I1 0
52 *329:207 *386:12 0
53 *338:10 *386:12 0
*RES
1 *3471:Q *386:6 4.728 
2 *386:6 *386:8 4.5 
3 *386:8 *386:12 7.616 
4 *386:12 *3277:S0 21.176 
5 *386:12 *3378:A1 5.488 
6 *386:8 *3356:I1 11.584 
7 *386:6 *386:49 8.832 
8 *386:49 *386:51 0.38 
9 *386:51 *3368:A2 11.736 
10 *386:51 *3379:A2 9.228 
11 *386:49 *3375:A1 10.444 
*END

*D_NET *387 0.00917019
*CONN
*I *3381:A1 I *D gf180mcu_fd_sc_mcu7t5v0__xor2_1
*I *3368:A1 I *D gf180mcu_fd_sc_mcu7t5v0__nand3_1
*I *3376:A1 I *D gf180mcu_fd_sc_mcu7t5v0__oai21_1
*I *3357:I1 I *D gf180mcu_fd_sc_mcu7t5v0__mux2_2
*I *3277:S1 I *D gf180mcu_fd_sc_mcu7t5v0__mux4_1
*I *3472:Q O *D gf180mcu_fd_sc_mcu7t5v0__dffrnq_1
*CAP
1 *3381:A1 0
2 *3368:A1 0
3 *3376:A1 0.00041715
4 *3357:I1 0
5 *3277:S1 0.000495317
6 *3472:Q 0.0007778
7 *387:40 0.000760773
8 *387:22 0.00100652
9 *387:18 0.00101799
10 *387:10 0.000940961
11 *3277:S1 *3277:I1 5.76373e-06
12 *3277:S1 *3277:I3 9.88736e-06
13 *3277:S1 *3571:I 0.000171927
14 *3277:S1 *391:53 3.00299e-05
15 *387:22 *391:8 0.000232309
16 *387:22 *391:53 0.000326266
17 *387:40 *3368:A3 1.02578e-05
18 *3277:S0 *3277:S1 3.01323e-05
19 *3277:S0 *387:22 2.31659e-05
20 *3358:A1 *387:10 1.20079e-05
21 *3358:A2 *387:10 0.00011955
22 *3368:A2 *3376:A1 0
23 *3368:A2 *387:40 0.000379283
24 *3369:B2 *3376:A1 9.5126e-05
25 *3377:B1 *3376:A1 0
26 *3377:C *3376:A1 6.33531e-06
27 *3378:A2 *387:22 5.06913e-05
28 *3378:A2 *387:40 4.79865e-05
29 *3380:B2 *3376:A1 0.000130987
30 *3466:D *387:22 7.88344e-05
31 *3472:D *387:10 0
32 *3472:CLK *387:22 8.166e-05
33 *3480:CLK *3277:S1 0.000240143
34 *3512:RN *387:40 0
35 *3529:I *387:18 5.23776e-05
36 *3529:I *387:22 4.71447e-05
37 *3529:I *387:40 0.000356792
38 *3577:I *3376:A1 9.52854e-05
39 *126:22 *3376:A1 8.51219e-05
40 *300:16 *3376:A1 7.87465e-05
41 *302:10 *3376:A1 0.000514812
42 *322:103 *3277:S1 0.000441055
43 *338:36 *387:10 0
*RES
1 *3472:Q *387:10 14.472 
2 *387:10 *387:18 5.716 
3 *387:18 *387:22 4.94 
4 *387:22 *3277:S1 9.06 
5 *387:22 *3357:I1 4.5 
6 *387:18 *387:40 3.42 
7 *387:40 *3376:A1 16.844 
8 *387:40 *3368:A1 4.5 
9 *387:10 *3381:A1 9 
*END

*D_NET *388 0.00583195
*CONN
*I *3281:A2 I *D gf180mcu_fd_sc_mcu7t5v0__or2_1
*I *3243:C I *D gf180mcu_fd_sc_mcu7t5v0__aoi211_1
*I *3280:A2 I *D gf180mcu_fd_sc_mcu7t5v0__nor2_1
*I *3242:A2 I *D gf180mcu_fd_sc_mcu7t5v0__nor2_1
*I *3511:Q O *D gf180mcu_fd_sc_mcu7t5v0__dffsnq_1
*CAP
1 *3281:A2 0.000106086
2 *3243:C 0.000380442
3 *3280:A2 0
4 *3242:A2 0.000167373
5 *3511:Q 2.09431e-05
6 *388:32 0.00056428
7 *388:10 0.000235946
8 *388:8 0.000167268
9 *3242:A2 *3280:A1 0
10 *3243:C *3224:A1 3.83835e-06
11 *3281:A2 *3280:A1 0
12 *388:8 *3280:A1 7.24161e-06
13 *388:10 *3280:A1 0
14 *388:32 *3280:A1 0
15 *3224:A2 *3243:C 9.88736e-06
16 *3229:A2 *3243:C 7.88344e-05
17 *3245:I *3242:A2 2.08148e-05
18 *3245:I *388:10 2.67619e-05
19 *3515:D *3242:A2 0.000431535
20 *3530:I *3243:C 7.94759e-05
21 *3530:I *3281:A2 0.000101099
22 *3550:I *3242:A2 0.000142809
23 *233:6 *3242:A2 0.000296236
24 *253:14 *3243:C 0.00110499
25 *256:6 *3243:C 5.19635e-05
26 *256:6 *3281:A2 6.22405e-05
27 *256:6 *388:8 8.55327e-05
28 *343:264 *3243:C 0.000880191
29 *343:266 *3242:A2 0.000197957
30 *343:266 *3243:C 0.000263004
31 *343:266 *388:10 0.000181996
32 *343:266 *388:32 0.000110995
33 *374:66 *3243:C 2.9378e-06
34 *374:75 *3243:C 2.9378e-06
35 *374:90 *3243:C 4.63375e-05
*RES
1 *3511:Q *388:8 9.228 
2 *388:8 *388:10 0.988 
3 *388:10 *3242:A2 11.736 
4 *388:10 *3280:A2 9 
5 *388:8 *388:32 5.184 
6 *388:32 *3243:C 18.744 
7 *388:32 *3281:A2 5.488 
*END

*D_NET *389 0.00379384
*CONN
*I *3246:A2 I *D gf180mcu_fd_sc_mcu7t5v0__nor2_1
*I *3369:A2 I *D gf180mcu_fd_sc_mcu7t5v0__oai22_1
*I *3380:A1 I *D gf180mcu_fd_sc_mcu7t5v0__aoi221_1
*I *3377:A1 I *D gf180mcu_fd_sc_mcu7t5v0__aoi221_1
*I *3368:A3 I *D gf180mcu_fd_sc_mcu7t5v0__nand3_1
*I *3512:Q O *D gf180mcu_fd_sc_mcu7t5v0__dffrnq_1
*CAP
1 *3246:A2 0
2 *3369:A2 0.00011296
3 *3380:A1 0.000167831
4 *3377:A1 3.66413e-05
5 *3368:A3 0.000140166
6 *3512:Q 3.28034e-05
7 *389:30 0.000423289
8 *389:19 0.000333759
9 *389:15 0.000243508
10 *389:6 0.000261857
11 *3369:A2 *3377:B2 1.34641e-06
12 *3369:A2 *393:23 1.59363e-05
13 *389:19 *3246:A1 3.05262e-05
14 *389:30 *3246:A1 9.17565e-06
15 *389:30 *393:23 6.1992e-06
16 *3247:B *3368:A3 4.58601e-06
17 *3247:B *389:15 4.17249e-05
18 *3369:B1 *3380:A1 3.25235e-05
19 *3369:B2 *3380:A1 0.000394996
20 *3377:A2 *3369:A2 4.85279e-06
21 *3377:A2 *389:30 1.16164e-05
22 *3377:B1 *3369:A2 8.54902e-05
23 *3377:B1 *3380:A1 0.000212289
24 *3512:RN *3368:A3 1.56182e-05
25 *3529:I *3368:A3 7.09316e-06
26 *3:18 *3368:A3 8.37217e-05
27 *3:18 *3377:A1 0.000201948
28 *3:18 *389:15 6.12935e-05
29 *126:22 *3377:A1 0.000441055
30 *126:22 *3380:A1 5.40635e-05
31 *126:22 *389:30 0
32 *293:23 *3380:A1 0.000141529
33 *295:12 *3369:A2 8.84331e-05
34 *343:699 *3368:A3 5.5781e-05
35 *343:699 *389:15 2.89664e-05
36 *387:40 *3368:A3 1.02578e-05
*RES
1 *3512:Q *389:6 4.728 
2 *389:6 *3368:A3 5.792 
3 *389:6 *389:15 0.836 
4 *389:15 *389:19 5.488 
5 *389:19 *3377:A1 10.14 
6 *389:19 *389:30 0.684 
7 *389:30 *3380:A1 11.356 
8 *389:30 *3369:A2 9.836 
9 *389:15 *3246:A2 4.5 
*END

*D_NET *390 0.0267386
*CONN
*I *3329:A2 I *D gf180mcu_fd_sc_mcu7t5v0__oai21_1
*I *3323:S I *D gf180mcu_fd_sc_mcu7t5v0__mux2_2
*I *3328:A2 I *D gf180mcu_fd_sc_mcu7t5v0__nand2_1
*I *3517:D I *D gf180mcu_fd_sc_mcu7t5v0__dffrnq_1
*I *3322:A2 I *D gf180mcu_fd_sc_mcu7t5v0__oai21_1
*I *3317:S I *D gf180mcu_fd_sc_mcu7t5v0__mux2_2
*I *3321:A2 I *D gf180mcu_fd_sc_mcu7t5v0__nand2_1
*I *3326:A2 I *D gf180mcu_fd_sc_mcu7t5v0__nand2_1
*I *3327:A2 I *D gf180mcu_fd_sc_mcu7t5v0__oai21_1
*I *3330:S I *D gf180mcu_fd_sc_mcu7t5v0__mux2_2
*I *3325:S I *D gf180mcu_fd_sc_mcu7t5v0__mux2_2
*I *3320:S I *D gf180mcu_fd_sc_mcu7t5v0__mux2_2
*I *3572:I I *D gf180mcu_fd_sc_mcu7t5v0__buf_4
*I *3316:S I *D gf180mcu_fd_sc_mcu7t5v0__mux2_2
*I *3513:Q O *D gf180mcu_fd_sc_mcu7t5v0__dffrnq_2
*CAP
1 *3329:A2 0.000669255
2 *3323:S 0.000403683
3 *3328:A2 0
4 *3517:D 0.00135787
5 *3322:A2 0
6 *3317:S 0.000520505
7 *3321:A2 0
8 *3326:A2 0
9 *3327:A2 0
10 *3330:S 0.000666027
11 *3325:S 0.001626
12 *3320:S 0
13 *3572:I 0.000878802
14 *3316:S 1.24834e-05
15 *3513:Q 0.000243971
16 *390:159 0.0012149
17 *390:150 0.000480776
18 *390:104 0.000552004
19 *390:96 0.00105244
20 *390:81 0.000912633
21 *390:72 0.000397801
22 *390:55 0.00127567
23 *390:12 0.000741856
24 *390:10 0.00071017
25 *390:6 0.000929356
26 *3316:S *3179:A2 0.000406043
27 *3316:S *3316:I0 0.00034938
28 *3317:S *3317:I0 0.000398271
29 *3317:S *3317:I1 4.70772e-05
30 *3317:S *3321:A1 0.000386421
31 *3323:S *3323:I0 5.75659e-05
32 *3323:S *3328:A1 5.16188e-05
33 *3329:A2 *3328:A1 5.13643e-06
34 *3330:S *3330:I0 0.000147305
35 *3517:D *3325:I1 3.73535e-05
36 *3572:I *3178:A1 0.000297426
37 *3572:I *3179:A2 0
38 *3572:I *3316:I0 2.9378e-06
39 *3572:I *399:8 8.95196e-05
40 *3572:I *399:10 1.0973e-05
41 *390:10 *391:16 0.000771088
42 *390:10 *403:14 0
43 *390:12 *3179:A2 8.84331e-05
44 *390:12 *3316:I0 0.000247234
45 *390:12 *3320:I1 0.000133382
46 *390:72 *3216:A1 0
47 *390:81 *3216:A1 0
48 *390:96 *3183:A1 0
49 *390:104 *3317:I1 6.54021e-06
50 *390:104 *3321:A1 8.53039e-05
51 *390:150 *3317:I1 4.50449e-05
52 *390:150 *405:23 0
53 *390:150 *405:32 0
54 *3183:A3 *390:96 0
55 *3232:A2 *3517:D 8.55327e-05
56 *3235:A4 *3517:D 0.00116399
57 *3236:B *3517:D 0.000271416
58 *3247:A1 *3517:D 7.15189e-06
59 *3322:A1 *390:104 0.000143192
60 *3325:I0 *3325:S 2.22657e-05
61 *3326:A1 *390:81 1.15275e-05
62 *3326:A1 *390:96 0.000722903
63 *3327:A1 *390:55 0.000106621
64 *3327:B *390:72 0
65 *3327:B *390:81 0
66 *3329:A1 *3329:A2 3.00299e-05
67 *3329:B *3329:A2 0
68 *3329:B *390:159 8.7332e-05
69 *3491:D *390:150 0
70 *3494:RN *390:10 0
71 *3495:D *390:96 0.00030884
72 *3495:D *390:104 1.85511e-05
73 *3495:CLK *390:96 0
74 *3499:D *390:55 0
75 *3499:D *390:72 0.000202974
76 *3499:RN *390:12 0
77 *3500:D *3329:A2 0.000379283
78 *3500:CLK *3317:S 0
79 *3511:D *390:6 0.000267726
80 *3517:CLK *3517:D 0
81 *4073:I *3329:A2 0
82 *174:12 *390:12 0.000730521
83 *185:14 *3517:D 0.0012139
84 *195:14 *3517:D 4.84311e-05
85 *212:14 *390:96 0.000387763
86 *324:8 *3517:D 0.000154561
87 *343:431 *3330:S 0
88 *343:457 *390:96 0.000952666
89 *374:90 *3325:S 0.000377038
90 *374:90 *3517:D 0.000704403
91 *374:90 *390:6 2.96977e-05
*RES
1 *3513:Q *390:6 6.4 
2 *390:6 *390:10 8.984 
3 *390:10 *390:12 3.42 
4 *390:12 *3316:S 9.988 
5 *390:12 *3572:I 12.268 
6 *390:10 *3320:S 9 
7 *390:6 *3325:S 6.704 
8 *3572:I *390:55 12.04 
9 *390:55 *3330:S 13.408 
10 *390:55 *390:72 5.716 
11 *390:72 *3327:A2 4.5 
12 *390:72 *390:81 1.52 
13 *390:81 *3326:A2 4.5 
14 *390:81 *390:96 15.764 
15 *390:96 *390:104 11.128 
16 *390:104 *3321:A2 4.5 
17 *390:104 *3317:S 6.704 
18 *390:96 *3322:A2 4.5 
19 *3325:S *3517:D 21.768 
20 *3317:S *390:150 6.704 
21 *390:150 *3328:A2 4.5 
22 *390:150 *390:159 5.488 
23 *390:159 *3323:S 12.116 
24 *390:159 *3329:A2 13.864 
*END

*D_NET *391 0.00860706
*CONN
*I *3357:S I *D gf180mcu_fd_sc_mcu7t5v0__mux2_2
*I *3571:I I *D gf180mcu_fd_sc_mcu7t5v0__buf_2
*I *3558:I I *D gf180mcu_fd_sc_mcu7t5v0__dlyc_1
*I *3280:A1 I *D gf180mcu_fd_sc_mcu7t5v0__nor2_1
*I *3281:A1 I *D gf180mcu_fd_sc_mcu7t5v0__or2_1
*I *3514:Q O *D gf180mcu_fd_sc_mcu7t5v0__dffrnq_1
*CAP
1 *3357:S 0
2 *3571:I 8.59607e-05
3 *3558:I 2.39161e-05
4 *3280:A1 0.000380872
5 *3281:A1 6.17802e-05
6 *3514:Q 0.000187625
7 *391:53 0.000373437
8 *391:16 0.00110325
9 *391:10 0.000924205
10 *391:8 0.000714788
11 *3242:A2 *3280:A1 0
12 *3245:I *3280:A1 7.90635e-05
13 *3277:S0 *391:8 4.34558e-05
14 *3277:S1 *3571:I 0.000171927
15 *3277:S1 *391:53 3.00299e-05
16 *3281:A2 *3280:A1 0
17 *3378:A1 *391:8 7.70843e-05
18 *3378:A2 *391:8 0.000386421
19 *3466:D *391:10 9.95869e-05
20 *3466:CLK *3558:I 0
21 *3471:RN *391:53 0
22 *3472:CLK *391:10 0.00042949
23 *3472:CLK *391:53 0.000151728
24 *3494:RN *391:16 0
25 *3515:D *3280:A1 8.84331e-05
26 *3529:I *3571:I 0
27 *3529:I *391:53 0
28 *3530:I *3281:A1 1.84085e-05
29 *3530:I *391:16 0.000100283
30 *3532:I *391:16 3.57765e-05
31 *256:6 *3280:A1 2.40898e-05
32 *320:25 *391:53 0
33 *320:31 *391:10 0.000362081
34 *320:31 *391:16 0.00107506
35 *338:10 *3571:I 6.77492e-05
36 *338:10 *391:53 8.81157e-05
37 *343:266 *3280:A1 0
38 *343:543 *3558:I 8.55327e-05
39 *387:22 *391:8 0.000232309
40 *387:22 *391:53 0.000326266
41 *388:8 *3280:A1 7.24161e-06
42 *388:10 *3280:A1 0
43 *388:32 *3280:A1 0
44 *390:10 *391:16 0.000771088
*RES
1 *3514:Q *391:8 11.204 
2 *391:8 *391:10 3.42 
3 *391:10 *391:16 12.556 
4 *391:16 *3281:A1 4.956 
5 *391:16 *3280:A1 16.084 
6 *391:10 *3558:I 9.228 
7 *391:8 *391:53 7.388 
8 *391:53 *3571:I 5.488 
9 *391:53 *3357:S 4.5 
*END

*D_NET *392 0.0114113
*CONN
*I *3126:I I *D gf180mcu_fd_sc_mcu7t5v0__clkinv_1
*I *3288:A1 I *D gf180mcu_fd_sc_mcu7t5v0__aoi21_1
*I *3289:A1 I *D gf180mcu_fd_sc_mcu7t5v0__and3_1
*I *3242:A1 I *D gf180mcu_fd_sc_mcu7t5v0__nor2_1
*I *3283:A1 I *D gf180mcu_fd_sc_mcu7t5v0__nand2_1
*I *3282:A1 I *D gf180mcu_fd_sc_mcu7t5v0__nor2_1
*I *3296:A1 I *D gf180mcu_fd_sc_mcu7t5v0__aoi21_1
*I *3515:Q O *D gf180mcu_fd_sc_mcu7t5v0__dffrnq_1
*CAP
1 *3126:I 0.000223568
2 *3288:A1 0
3 *3289:A1 0.000101573
4 *3242:A1 0.000140677
5 *3283:A1 0
6 *3282:A1 0.000225718
7 *3296:A1 0.000210487
8 *3515:Q 0
9 *392:54 0.000212558
10 *392:50 0.00059909
11 *392:25 0.000391404
12 *392:21 0.000306362
13 *392:8 0.00053506
14 *392:6 0.00058911
15 *3282:A1 *3286:A1 0.000116256
16 *3282:A1 *412:25 6.49724e-05
17 *3289:A1 *3289:A2 0.000494087
18 *392:50 *413:12 1.31444e-05
19 *392:50 *413:18 1.16164e-05
20 *392:54 *3289:A2 2.6126e-05
21 *392:54 *413:10 2.7935e-05
22 *3229:B *3126:I 0
23 *3229:B *3289:A1 3.56433e-05
24 *3229:B *392:54 5.40519e-05
25 *3229:C *3126:I 4.82663e-05
26 *3243:A2 *392:50 3.40956e-05
27 *3244:A2 *3242:A1 0.000101127
28 *3244:A2 *392:8 0.000323223
29 *3244:A2 *392:25 9.17202e-06
30 *3244:A2 *392:50 8.05328e-05
31 *3279:A2 *3296:A1 0.000279004
32 *3283:A2 *392:25 0.000471077
33 *3295:A2 *3296:A1 2.62889e-05
34 *3296:B *392:25 0
35 *3298:A2 *3296:A1 1.02578e-05
36 *3425:CLK *392:25 0.00011955
37 *3480:D *3126:I 0
38 *3494:CLK *3242:A1 0.000839317
39 *3513:D *3126:I 0.000251816
40 *3513:D *392:50 8.8425e-05
41 *3515:D *3242:A1 2.54562e-05
42 *218:8 *392:50 4.06678e-05
43 *233:6 *3242:A1 0.000725285
44 *253:14 *3126:I 4.89423e-05
45 *253:14 *3296:A1 9.32395e-05
46 *253:14 *392:8 0.000374934
47 *253:14 *392:50 0.000190893
48 *255:10 *392:8 0.000517091
49 *255:14 *3296:A1 0.000898232
50 *255:14 *392:8 0.000117908
51 *266:8 *3296:A1 7.31727e-05
52 *321:82 *3242:A1 5.94067e-05
53 *321:82 *392:25 0.000725276
54 *321:89 *3242:A1 0.000422778
55 *343:260 *3126:I 0
56 *374:66 *3289:A1 3.64096e-05
57 *374:90 *3126:I 0
*RES
1 *3515:Q *392:6 9 
2 *392:6 *392:8 4.788 
3 *392:8 *3296:A1 12.04 
4 *392:8 *392:21 4.5 
5 *392:21 *392:25 3.04 
6 *392:25 *3282:A1 15.4 
7 *392:25 *3283:A1 4.5 
8 *392:21 *3242:A1 7.92 
9 *392:6 *392:50 2.66 
10 *392:50 *392:54 5.336 
11 *392:54 *3289:A1 5.792 
12 *392:54 *3288:A1 4.5 
13 *392:50 *3126:I 10.824 
*END

*D_NET *393 0.00338429
*CONN
*I *3121:I I *D gf180mcu_fd_sc_mcu7t5v0__clkinv_1
*I *3377:B2 I *D gf180mcu_fd_sc_mcu7t5v0__aoi221_1
*I *3374:A1 I *D gf180mcu_fd_sc_mcu7t5v0__nand2_1
*I *3369:A1 I *D gf180mcu_fd_sc_mcu7t5v0__oai22_1
*I *3246:A1 I *D gf180mcu_fd_sc_mcu7t5v0__nor2_1
*I *3516:Q O *D gf180mcu_fd_sc_mcu7t5v0__dffrnq_1
*CAP
1 *3121:I 0
2 *3377:B2 0.000316081
3 *3374:A1 0
4 *3369:A1 6.59703e-05
5 *3246:A1 0.000333388
6 *3516:Q 0.000263371
7 *393:25 6.59703e-05
8 *393:23 0.000449318
9 *393:10 0.000513298
10 *393:6 0.000310045
11 *3369:A2 *3377:B2 1.34641e-06
12 *3369:A2 *393:23 1.59363e-05
13 *3369:B1 *3377:B2 0.000273688
14 *3373:I *3377:B2 5.48455e-05
15 *3374:A2 *3377:B2 0.000151949
16 *3377:C *3377:B2 2.6126e-05
17 *3:18 *3246:A1 1.54509e-05
18 *3:18 *3369:A1 0
19 *3:18 *393:6 0.000115177
20 *3:18 *393:10 2.976e-05
21 *126:22 *3369:A1 3.87828e-05
22 *126:22 *3377:B2 0
23 *293:23 *3377:B2 7.83779e-05
24 *295:12 *3377:B2 5.23155e-05
25 *300:10 *3377:B2 1.47007e-05
26 *300:10 *393:23 6.04444e-06
27 *300:16 *3377:B2 2.69001e-05
28 *343:699 *3246:A1 0.00011955
29 *389:19 *3246:A1 3.05262e-05
30 *389:30 *3246:A1 9.17565e-06
31 *389:30 *393:23 6.1992e-06
*RES
1 *3516:Q *393:6 6.248 
2 *393:6 *393:10 4.88 
3 *393:10 *3246:A1 11.28 
4 *393:10 *393:23 0.836 
5 *393:23 *393:25 4.5 
6 *393:25 *3369:A1 5.184 
7 *393:25 *3374:A1 4.5 
8 *393:23 *3377:B2 12.04 
9 *393:6 *3121:I 4.5 
*END

*D_NET *394 0.00326824
*CONN
*I *3553:I I *D gf180mcu_fd_sc_mcu7t5v0__dlyc_1
*I *3237:B I *D gf180mcu_fd_sc_mcu7t5v0__oai31_1
*I *3517:Q O *D gf180mcu_fd_sc_mcu7t5v0__dffrnq_1
*CAP
1 *3553:I 0.000243798
2 *3237:B 0.000483232
3 *3517:Q 5.99411e-05
4 *394:8 0.000786972
5 *3125:I *3237:B 7.53241e-05
6 *3220:A1 *3237:B 8.95196e-05
7 *3517:RN *3237:B 8.29507e-05
8 *3517:RN *3553:I 0.000657233
9 *3:18 *3237:B 0.000210535
10 *3:18 *3553:I 0.000578735
*RES
1 *3517:Q *394:8 9.38 
2 *394:8 *3237:B 12.8 
3 *394:8 *3553:I 12.952 
*END

*D_NET *395 0.00400467
*CONN
*I *3178:A2 I *D gf180mcu_fd_sc_mcu7t5v0__and2_1
*I *3179:A2 I *D gf180mcu_fd_sc_mcu7t5v0__xor2_1
*I *3316:I1 I *D gf180mcu_fd_sc_mcu7t5v0__mux2_2
*I *3310:I0 I *D gf180mcu_fd_sc_mcu7t5v0__mux2_2
*I *3486:Q O *D gf180mcu_fd_sc_mcu7t5v0__dffrnq_1
*CAP
1 *3178:A2 0.000387293
2 *3179:A2 0.000549895
3 *3316:I1 1.78134e-05
4 *3310:I0 0.00071545
5 *3486:Q 0.000128556
6 *395:10 0.000860951
7 *395:6 0.000418845
8 *3178:A2 *3178:A1 0.000117969
9 *3180:B *3178:A2 0
10 *3189:A2 *3178:A2 0
11 *3316:S *3179:A2 0.000406043
12 *3494:D *3178:A2 4.71484e-05
13 *3494:CLK *3178:A2 0.00011704
14 *3499:RN *3178:A2 0.000111867
15 *3499:RN *3179:A2 0
16 *3572:I *3179:A2 0
17 *343:397 *3179:A2 0
18 *343:397 *3316:I1 3.73627e-05
19 *343:397 *395:6 0
20 *343:401 *3179:A2 0
21 *343:401 *3310:I0 0
22 *343:401 *395:10 0
23 *390:12 *3179:A2 8.84331e-05
*RES
1 *3486:Q *395:6 5.184 
2 *395:6 *395:10 5.336 
3 *395:10 *3310:I0 13.788 
4 *395:10 *3316:I1 9.228 
5 *395:6 *3179:A2 15.172 
6 *3179:A2 *3178:A2 11.964 
*END

*D_NET *396 0.0094494
*CONN
*I *3181:A2 I *D gf180mcu_fd_sc_mcu7t5v0__nand2_1
*I *3182:A2 I *D gf180mcu_fd_sc_mcu7t5v0__nor2_1
*I *3183:A2 I *D gf180mcu_fd_sc_mcu7t5v0__xor3_1
*I *3317:I1 I *D gf180mcu_fd_sc_mcu7t5v0__mux2_2
*I *3311:A1 I *D gf180mcu_fd_sc_mcu7t5v0__nor2_1
*I *3487:Q O *D gf180mcu_fd_sc_mcu7t5v0__dffrnq_1
*CAP
1 *3181:A2 3.72651e-05
2 *3182:A2 0.000185671
3 *3183:A2 0.000440573
4 *3317:I1 0.00126264
5 *3311:A1 0.000219725
6 *3487:Q 0
7 *396:50 0.00053854
8 *396:23 0.0019748
9 *396:4 0.000806921
10 *3182:A2 *3181:A1 8.86483e-06
11 *3182:A2 *3183:A1 0.000167558
12 *396:23 *3216:A1 8.7332e-05
13 *396:50 *3181:A1 8.82876e-06
14 *396:50 *3183:A1 0.000156018
15 *3198:A3 *3317:I1 0
16 *3200:B *3317:I1 0.000107446
17 *3204:B *3182:A2 2.98535e-05
18 *3216:A2 *396:23 0.000299171
19 *3217:A2 *3317:I1 7.00332e-05
20 *3310:S *3311:A1 0.000147305
21 *3317:S *3317:I1 4.70772e-05
22 *3487:D *3311:A1 0
23 *3491:D *3317:I1 7.60086e-05
24 *193:10 *3317:I1 0.0001266
25 *195:14 *3317:I1 1.47675e-05
26 *323:10 *3311:A1 0.000168421
27 *323:14 *3311:A1 0.000288951
28 *323:27 *3311:A1 1.20889e-05
29 *323:102 *3317:I1 0
30 *339:12 *3311:A1 0.00114725
31 *339:23 *3311:A1 3.35674e-05
32 *343:431 *396:23 0
33 *343:442 *396:23 0.0001639
34 *343:457 *3183:A2 0.000119775
35 *343:457 *3317:I1 3.02222e-05
36 *343:457 *396:23 0.000154348
37 *343:457 *396:50 0.000435696
38 *343:470 *396:50 3.05986e-05
39 *390:104 *3317:I1 6.54021e-06
40 *390:150 *3317:I1 4.50449e-05
*RES
1 *3487:Q *396:4 4.5 
2 *396:4 *3311:A1 17.224 
3 *396:4 *396:23 8.984 
4 *396:23 *3317:I1 17.208 
5 *396:23 *3183:A2 10.14 
6 *3183:A2 *396:50 7.616 
7 *396:50 *3182:A2 6.02 
8 *396:50 *3181:A2 4.728 
*END

*D_NET *397 0.0063355
*CONN
*I *3192:A2 I *D gf180mcu_fd_sc_mcu7t5v0__xor2_1
*I *3318:I1 I *D gf180mcu_fd_sc_mcu7t5v0__mux2_2
*I *3191:A2 I *D gf180mcu_fd_sc_mcu7t5v0__and2_1
*I *3313:I0 I *D gf180mcu_fd_sc_mcu7t5v0__mux2_2
*I *3488:Q O *D gf180mcu_fd_sc_mcu7t5v0__dffrnq_1
*CAP
1 *3192:A2 0.000156052
2 *3318:I1 0.000285262
3 *3191:A2 3.28034e-05
4 *3313:I0 0.000388073
5 *3488:Q 0
6 *397:34 0.000524444
7 *397:23 0.00152751
8 *397:4 0.00179965
9 *3192:A2 *3193:A1 0
10 *3192:A2 *401:17 4.38802e-05
11 *3318:I1 *3318:I0 0.000107387
12 *397:23 *3194:A1 0.000149579
13 *397:23 *3195:A2 2.17248e-05
14 *397:23 *3314:A1 2.40935e-05
15 *397:23 *3318:I0 2.19722e-05
16 *397:23 *3324:I0 0.000372137
17 *397:23 *398:34 0.000336522
18 *397:23 *402:8 4.71416e-05
19 *397:34 *3193:A1 0
20 *397:34 *3318:I0 1.44832e-05
21 *397:34 *401:17 1.52691e-05
22 *3198:A2 *397:23 0
23 *3199:C *397:23 5.84362e-05
24 *3315:A1 *3313:I0 5.86759e-05
25 *3315:A1 *397:23 8.17271e-05
26 *3315:B *397:23 5.05618e-05
27 *3492:CLK *3318:I1 6.57222e-06
28 *3497:RN *397:23 0
29 *323:104 *3318:I1 0.000211545
30 *343:301 *397:23 0
31 *343:314 *397:23 0
*RES
1 *3488:Q *397:4 4.5 
2 *397:4 *3313:I0 15.78 
3 *397:4 *397:23 10.412 
4 *397:23 *3191:A2 4.728 
5 *397:23 *397:34 0.608 
6 *397:34 *3318:I1 16.16 
7 *397:34 *3192:A2 5.564 
*END

*D_NET *398 0.00473126
*CONN
*I *3195:A2 I *D gf180mcu_fd_sc_mcu7t5v0__xor2_1
*I *3194:A2 I *D gf180mcu_fd_sc_mcu7t5v0__nand2_1
*I *3314:A1 I *D gf180mcu_fd_sc_mcu7t5v0__nor2_1
*I *3319:I1 I *D gf180mcu_fd_sc_mcu7t5v0__mux2_2
*I *3489:Q O *D gf180mcu_fd_sc_mcu7t5v0__dffrnq_1
*CAP
1 *3195:A2 0.000105062
2 *3194:A2 0
3 *3314:A1 5.22792e-05
4 *3319:I1 0.000147592
5 *3489:Q 0.000221968
6 *398:34 0.000418639
7 *398:19 0.000537562
8 *398:8 0.000541266
9 *3195:A2 *3194:A1 0.000194624
10 *3195:A2 *406:37 1.02823e-05
11 *3319:I1 *3319:I0 1.72912e-05
12 *398:34 *406:37 0
13 *3199:C *3195:A2 0.000149579
14 *3314:A2 *398:19 4.724e-05
15 *3315:B *3314:A1 0.000193942
16 *3489:RN *398:8 0.000666998
17 *3489:RN *398:19 0.000492181
18 *323:31 *398:34 0.000134113
19 *323:35 *398:8 0.000184382
20 *323:35 *398:19 0.000138153
21 *323:35 *398:34 9.57657e-05
22 *339:51 *3319:I1 0
23 *397:23 *3195:A2 2.17248e-05
24 *397:23 *3314:A1 2.40935e-05
25 *397:23 *398:34 0.000336522
*RES
1 *3489:Q *398:8 11.66 
2 *398:8 *3319:I1 9.836 
3 *398:8 *398:19 2.052 
4 *398:19 *3314:A1 9.532 
5 *398:19 *398:34 7.54 
6 *398:34 *3194:A2 4.5 
7 *398:34 *3195:A2 6.02 
*END

*D_NET *399 0.00360723
*CONN
*I *3178:A1 I *D gf180mcu_fd_sc_mcu7t5v0__and2_1
*I *3320:I1 I *D gf180mcu_fd_sc_mcu7t5v0__mux2_2
*I *3179:A1 I *D gf180mcu_fd_sc_mcu7t5v0__xor2_1
*I *3316:I0 I *D gf180mcu_fd_sc_mcu7t5v0__mux2_2
*I *3490:Q O *D gf180mcu_fd_sc_mcu7t5v0__dffrnq_1
*CAP
1 *3178:A1 0.000317702
2 *3320:I1 0.000179325
3 *3179:A1 0
4 *3316:I0 0.000135226
5 *3490:Q 0
6 *399:10 0.000159613
7 *399:8 0.000302874
8 *399:4 0.000416864
9 *3178:A2 *3178:A1 0.000117969
10 *3316:S *3316:I0 0.00034938
11 *3494:CLK *3178:A1 5.1289e-05
12 *3494:CLK *3316:I0 7.83779e-05
13 *3494:CLK *399:8 4.45507e-05
14 *3494:CLK *399:10 0.000140167
15 *3499:RN *3178:A1 4.6818e-05
16 *3499:RN *3320:I1 9.17565e-06
17 *3572:I *3178:A1 0.000297426
18 *3572:I *3316:I0 2.9378e-06
19 *3572:I *399:8 8.95196e-05
20 *3572:I *399:10 1.0973e-05
21 *174:12 *3320:I1 0.000476427
22 *390:12 *3316:I0 0.000247234
23 *390:12 *3320:I1 0.000133382
*RES
1 *3490:Q *399:4 4.5 
2 *399:4 *399:8 0.912 
3 *399:8 *399:10 0.38 
4 *399:10 *3316:I0 15.172 
5 *399:10 *3179:A1 4.5 
6 *399:8 *3320:I1 15.4 
7 *399:4 *3178:A1 7.616 
*END

*D_NET *400 0.00604893
*CONN
*I *3181:A1 I *D gf180mcu_fd_sc_mcu7t5v0__nand2_1
*I *3182:A1 I *D gf180mcu_fd_sc_mcu7t5v0__nor2_1
*I *3317:I0 I *D gf180mcu_fd_sc_mcu7t5v0__mux2_2
*I *3321:A1 I *D gf180mcu_fd_sc_mcu7t5v0__nand2_1
*I *3183:A1 I *D gf180mcu_fd_sc_mcu7t5v0__xor3_1
*I *3491:Q O *D gf180mcu_fd_sc_mcu7t5v0__dffrnq_1
*CAP
1 *3181:A1 0.000161378
2 *3182:A1 2.97387e-05
3 *3317:I0 0.000104378
4 *3321:A1 1.91184e-05
5 *3183:A1 0.000589571
6 *3491:Q 0
7 *400:33 0.000254556
8 *400:17 0.000365454
9 *400:13 0.000305397
10 *400:4 0.000589571
11 *3182:A2 *3181:A1 8.86483e-06
12 *3182:A2 *3183:A1 0.000167558
13 *3204:A2 *3182:A1 0.000147313
14 *3204:B *3181:A1 0.000255714
15 *3204:B *3183:A1 0
16 *3317:S *3317:I0 0.000398271
17 *3317:S *3321:A1 0.000386421
18 *3322:A1 *3181:A1 2.13476e-05
19 *3322:A1 *400:17 6.00037e-05
20 *3322:A1 *400:33 1.97263e-05
21 *3495:CLK *3317:I0 7.83779e-05
22 *3495:CLK *3321:A1 0.000433688
23 *3500:CLK *3317:I0 0
24 *3500:CLK *400:17 0.000442387
25 *212:14 *3183:A1 4.04687e-05
26 *323:133 *400:17 8.15645e-05
27 *343:470 *3181:A1 0.00044777
28 *343:472 *3181:A1 6.48194e-05
29 *343:472 *400:17 0.000149685
30 *343:472 *400:33 8.56396e-05
31 *343:474 *400:17 8.9996e-05
32 *390:96 *3183:A1 0
33 *390:104 *3321:A1 8.53039e-05
34 *396:50 *3181:A1 8.82876e-06
35 *396:50 *3183:A1 0.000156018
*RES
1 *3491:Q *400:4 4.5 
2 *400:4 *3183:A1 8.528 
3 *400:4 *400:13 4.5 
4 *400:13 *400:17 7.464 
5 *400:17 *3321:A1 5.64 
6 *400:17 *3317:I0 5.64 
7 *400:13 *400:33 0.684 
8 *400:33 *3182:A1 9.38 
9 *400:33 *3181:A1 11.052 
*END

*D_NET *401 0.00326051
*CONN
*I *3192:A1 I *D gf180mcu_fd_sc_mcu7t5v0__xor2_1
*I *3191:A1 I *D gf180mcu_fd_sc_mcu7t5v0__and2_1
*I *3318:I0 I *D gf180mcu_fd_sc_mcu7t5v0__mux2_2
*I *3323:I1 I *D gf180mcu_fd_sc_mcu7t5v0__mux2_2
*I *3492:Q O *D gf180mcu_fd_sc_mcu7t5v0__dffrnq_1
*CAP
1 *3192:A1 4.5216e-05
2 *3191:A1 0
3 *3318:I0 0.000177462
4 *3323:I1 0.000522977
5 *3492:Q 0
6 *401:17 0.000362161
7 *401:15 0.000269844
8 *401:4 0.000562906
9 *3192:A1 *3193:A1 1.3758e-05
10 *3323:I1 *3323:I0 0
11 *3192:A2 *401:17 4.38802e-05
12 *3318:I1 *3318:I0 0.000107387
13 *3492:RN *3192:A1 0.000526238
14 *3496:D *3323:I1 5.07244e-05
15 *323:104 *3192:A1 0.000526238
16 *397:23 *3318:I0 2.19722e-05
17 *397:34 *3318:I0 1.44832e-05
18 *397:34 *401:17 1.52691e-05
*RES
1 *3492:Q *401:4 4.5 
2 *401:4 *3323:I1 7.692 
3 *401:4 *401:15 0.228 
4 *401:15 *401:17 1.14 
5 *401:17 *3318:I0 14.868 
6 *401:17 *3191:A1 4.5 
7 *401:15 *3192:A1 15.02 
*END

*D_NET *402 0.00288196
*CONN
*I *3194:A1 I *D gf180mcu_fd_sc_mcu7t5v0__nand2_1
*I *3195:A1 I *D gf180mcu_fd_sc_mcu7t5v0__xor2_1
*I *3319:I0 I *D gf180mcu_fd_sc_mcu7t5v0__mux2_2
*I *3324:I1 I *D gf180mcu_fd_sc_mcu7t5v0__mux2_2
*I *3493:Q O *D gf180mcu_fd_sc_mcu7t5v0__dffrnq_1
*CAP
1 *3194:A1 8.33681e-05
2 *3195:A1 0.000175382
3 *3319:I0 0.000242197
4 *3324:I1 0.000195257
5 *3493:Q 0.000114548
6 *402:10 0.000653473
7 *402:8 0.000422582
8 *3195:A1 *3324:I0 2.43241e-05
9 *402:10 *3324:I0 2.43212e-05
10 *3195:A2 *3194:A1 0.000194624
11 *3319:I1 *3319:I0 1.72912e-05
12 *3324:S *3319:I0 0.000381557
13 *3324:S *3324:I1 5.83634e-05
14 *3493:D *3319:I0 0
15 *3497:RN *402:8 4.71416e-05
16 *339:51 *3319:I0 4.50449e-05
17 *343:314 *402:8 5.76373e-06
18 *397:23 *3194:A1 0.000149579
19 *397:23 *402:8 4.71416e-05
*RES
1 *3493:Q *402:8 9.836 
2 *402:8 *402:10 1.292 
3 *402:10 *3324:I1 10.216 
4 *402:10 *3319:I0 11.356 
5 *402:8 *3195:A1 9.684 
6 *3195:A1 *3194:A1 10.292 
*END

*D_NET *403 0.00434208
*CONN
*I *3325:I1 I *D gf180mcu_fd_sc_mcu7t5v0__mux2_2
*I *3188:A1 I *D gf180mcu_fd_sc_mcu7t5v0__xor2_1
*I *3320:I0 I *D gf180mcu_fd_sc_mcu7t5v0__mux2_2
*I *3180:A1 I *D gf180mcu_fd_sc_mcu7t5v0__aoi21_1
*I *3494:Q O *D gf180mcu_fd_sc_mcu7t5v0__dffrnq_1
*CAP
1 *3325:I1 0.000148609
2 *3188:A1 3.91423e-05
3 *3320:I0 0.000256884
4 *3180:A1 9.35917e-05
5 *3494:Q 0
6 *403:18 0.000453687
7 *403:14 0.00033604
8 *403:6 0.000342295
9 *3188:A2 *3320:I0 4.58601e-06
10 *3494:RN *3325:I1 0.000553434
11 *3494:RN *403:14 0.000342528
12 *3498:D *3325:I1 4.63109e-05
13 *3498:CLK *3325:I1 6.79912e-06
14 *3498:CLK *403:14 0
15 *3499:CLK *3180:A1 0.000387765
16 *3499:CLK *3325:I1 4.08987e-05
17 *3499:CLK *403:14 8.5208e-05
18 *3499:CLK *403:18 0.000517099
19 *3517:D *3325:I1 3.73535e-05
20 *3532:I *3188:A1 9.17202e-06
21 *3532:I *3320:I0 0.000132714
22 *3532:I *403:14 4.84262e-05
23 *174:12 *3320:I0 0.000205447
24 *324:8 *3325:I1 2.6126e-05
25 *324:10 *3325:I1 5.72229e-05
26 *324:30 *3325:I1 8.03759e-06
27 *374:90 *3325:I1 0.000162705
28 *390:10 *403:14 0
*RES
1 *3494:Q *403:6 9 
2 *403:6 *403:14 6.4 
3 *403:14 *403:18 5.792 
4 *403:18 *3180:A1 9.988 
5 *403:18 *3320:I0 11.204 
6 *403:14 *3188:A1 4.728 
7 *403:6 *3325:I1 11.28 
*END

*D_NET *404 0.00185561
*CONN
*I *3122:I I *D gf180mcu_fd_sc_mcu7t5v0__clkinv_1
*I *3554:I I *D gf180mcu_fd_sc_mcu7t5v0__dlyc_1
*I *3495:Q O *D gf180mcu_fd_sc_mcu7t5v0__dffrnq_1
*CAP
1 *3122:I 0
2 *3554:I 0.000342971
3 *3495:Q 0.000118006
4 *404:8 0.000460977
5 *3183:A3 *3554:I 0.000375304
6 *3236:A2 *3554:I 2.97354e-06
7 *178:53 *3554:I 0.000310273
8 *212:14 *3554:I 0.000245109
9 *213:8 *3554:I 0
10 *343:457 *3554:I 0
*RES
1 *3495:Q *404:8 5.26 
2 *404:8 *3554:I 17.148 
3 *404:8 *3122:I 4.5 
*END

*D_NET *405 0.0035154
*CONN
*I *3328:A1 I *D gf180mcu_fd_sc_mcu7t5v0__nand2_1
*I *3323:I0 I *D gf180mcu_fd_sc_mcu7t5v0__mux2_2
*I *3205:A1 I *D gf180mcu_fd_sc_mcu7t5v0__xor2_1
*I *3193:A1 I *D gf180mcu_fd_sc_mcu7t5v0__aoi21_1
*I *3496:Q O *D gf180mcu_fd_sc_mcu7t5v0__dffrnq_1
*CAP
1 *3328:A1 0.000144254
2 *3323:I0 0.000335945
3 *3205:A1 0
4 *3193:A1 0.000380303
5 *3496:Q 3.44016e-05
6 *405:32 0.000518283
7 *405:23 0.000209475
8 *405:8 0.000586096
9 *3192:A1 *3193:A1 1.3758e-05
10 *3192:A2 *3193:A1 0
11 *3193:A2 *3193:A1 0.000146053
12 *3205:A2 *3193:A1 7.4219e-06
13 *3205:A2 *405:23 0.000223261
14 *3323:I1 *3323:I0 0
15 *3323:S *3323:I0 5.75659e-05
16 *3323:S *3328:A1 5.16188e-05
17 *3329:A2 *3328:A1 5.13643e-06
18 *3492:RN *3193:A1 4.06416e-05
19 *3496:RN *3193:A1 7.41459e-05
20 *4073:I *3328:A1 0.000276717
21 *3:18 *3193:A1 4.84746e-05
22 *3:18 *3323:I0 0.00010146
23 *3:18 *3328:A1 5.58073e-05
24 *3:18 *405:8 5.40492e-05
25 *343:474 *3193:A1 6.05381e-05
26 *343:474 *405:8 8.9996e-05
27 *390:150 *405:23 0
28 *390:150 *405:32 0
29 *397:34 *3193:A1 0
*RES
1 *3496:Q *405:8 9.684 
2 *405:8 *3193:A1 11.736 
3 *405:8 *405:23 5.944 
4 *405:23 *3205:A1 4.5 
5 *405:23 *405:32 4.728 
6 *405:32 *3323:I0 11.432 
7 *405:32 *3328:A1 10.596 
*END

*D_NET *406 0.00529007
*CONN
*I *3198:A1 I *D gf180mcu_fd_sc_mcu7t5v0__xnor3_1
*I *3197:A1 I *D gf180mcu_fd_sc_mcu7t5v0__nor2_1
*I *3330:I1 I *D gf180mcu_fd_sc_mcu7t5v0__mux2_2
*I *3196:A1 I *D gf180mcu_fd_sc_mcu7t5v0__nand2_1
*I *3324:I0 I *D gf180mcu_fd_sc_mcu7t5v0__mux2_2
*I *3497:Q O *D gf180mcu_fd_sc_mcu7t5v0__dffrnq_1
*CAP
1 *3198:A1 0
2 *3197:A1 0
3 *3330:I1 0.000182588
4 *3196:A1 0.000122539
5 *3324:I0 0.00030492
6 *3497:Q 0
7 *406:37 0.000669562
8 *406:31 0.000471881
9 *406:27 0.000429574
10 *406:4 0.000627048
11 *3195:A1 *3324:I0 2.43241e-05
12 *3195:A2 *406:37 1.02823e-05
13 *3198:A2 *406:27 0.000317494
14 *3198:A2 *406:31 9.26705e-05
15 *3199:B *406:31 0.000297362
16 *3199:C *406:27 7.70742e-05
17 *3199:C *406:31 0.000166569
18 *3199:C *406:37 3.15412e-05
19 *3318:S *3324:I0 7.24161e-06
20 *3324:S *3324:I0 4.50449e-05
21 *3497:RN *3324:I0 0.000147313
22 *3501:D *3196:A1 8.73421e-05
23 *323:27 *3330:I1 0
24 *323:27 *406:37 0
25 *323:29 *406:37 0
26 *323:31 *406:37 0
27 *323:89 *3196:A1 0.000317503
28 *323:89 *406:37 6.13012e-05
29 *323:102 *3196:A1 0.00032464
30 *323:102 *406:31 1.72912e-05
31 *323:102 *406:37 6.05076e-05
32 *397:23 *3324:I0 0.000372137
33 *398:34 *406:37 0
34 *402:10 *3324:I0 2.43212e-05
*RES
1 *3497:Q *406:4 4.5 
2 *406:4 *3324:I0 16.16 
3 *406:4 *406:27 11.432 
4 *406:27 *406:31 1.672 
5 *406:31 *406:37 6.932 
6 *406:37 *3196:A1 10.596 
7 *406:37 *3330:I1 10.14 
8 *406:31 *3197:A1 4.5 
9 *406:27 *3198:A1 4.5 
*END

*D_NET *407 0.0031292
*CONN
*I *3557:I I *D gf180mcu_fd_sc_mcu7t5v0__dlyc_1
*I *3190:A1 I *D gf180mcu_fd_sc_mcu7t5v0__nand3_1
*I *3498:Q O *D gf180mcu_fd_sc_mcu7t5v0__dffrnq_1
*CAP
1 *3557:I 0.000468849
2 *3190:A1 0.000446145
3 *3498:Q 0.000338841
4 *407:8 0.00125384
5 *3325:I0 *3190:A1 0.000390225
6 *3325:I0 *3557:I 6.49038e-05
7 *3378:A2 *3557:I 3.02712e-05
8 *3471:CLK *407:8 0.000134206
9 *3514:D *407:8 0
10 *3533:I *407:8 0
11 *324:30 *3190:A1 0
12 *343:543 *407:8 1.91917e-06
*RES
1 *3498:Q *407:8 11.052 
2 *407:8 *3190:A1 12.876 
3 *407:8 *3557:I 12.42 
*END

*D_NET *408 0.00405738
*CONN
*I *3189:A1 I *D gf180mcu_fd_sc_mcu7t5v0__xor3_1
*I *3212:A1 I *D gf180mcu_fd_sc_mcu7t5v0__aoi211_1
*I *3202:A1 I *D gf180mcu_fd_sc_mcu7t5v0__aoi21_1
*I *3124:I I *D gf180mcu_fd_sc_mcu7t5v0__clkinv_1
*I *3499:Q O *D gf180mcu_fd_sc_mcu7t5v0__dffrnq_1
*CAP
1 *3189:A1 0
2 *3212:A1 0
3 *3202:A1 0.000149156
4 *3124:I 0
5 *3499:Q 0.000216911
6 *408:31 0.000722434
7 *408:20 0.000953592
8 *408:12 0.000597226
9 *3188:A2 *408:20 0
10 *3189:A2 *408:12 0.000255722
11 *3189:A3 *408:20 4.13778e-05
12 *3202:B *3202:A1 8.39178e-05
13 *3212:A2 *3202:A1 0.000288822
14 *3212:C *3202:A1 1.95729e-05
15 *3212:C *408:31 1.5015e-05
16 *3230:A2 *408:31 2.83071e-05
17 *3499:CLK *408:12 0.000188422
18 *3499:CLK *408:20 0
19 *3532:I *408:12 0
20 *3532:I *408:20 0.000171927
21 *175:18 *408:12 2.22657e-05
22 *175:18 *408:20 0.000142175
23 *175:18 *408:31 2.03665e-05
24 *175:27 *408:31 9.67157e-05
25 *175:42 *408:31 0
26 *205:6 *3202:A1 4.34503e-05
*RES
1 *3499:Q *408:12 15.476 
2 *408:12 *408:20 12.04 
3 *408:20 *3124:I 4.5 
4 *408:20 *408:31 3.724 
5 *408:31 *3202:A1 6.02 
6 *408:31 *3212:A1 4.5 
7 *408:12 *3189:A1 4.5 
*END

*D_NET *409 0.00427929
*CONN
*I *3210:A1 I *D gf180mcu_fd_sc_mcu7t5v0__xor3_1
*I *3214:A1 I *D gf180mcu_fd_sc_mcu7t5v0__aoi21_1
*I *3123:I I *D gf180mcu_fd_sc_mcu7t5v0__clkinv_1
*I *3500:Q O *D gf180mcu_fd_sc_mcu7t5v0__dffrnq_1
*CAP
1 *3210:A1 0
2 *3214:A1 0.000171307
3 *3123:I 8.52083e-05
4 *3500:Q 0.000161862
5 *409:12 0.000450098
6 *409:8 0.000355445
7 *3206:A1 *3123:I 5.14116e-06
8 *3207:A2 *409:8 0.000111867
9 *3209:A1 *409:12 0.000179145
10 *3210:A2 *409:8 9.88736e-06
11 *3214:B *3123:I 0.000396652
12 *3215:A2 *409:8 0
13 *3500:RN *409:8 0
14 *3:18 *3214:A1 5.69791e-05
15 *3:18 *409:12 4.06692e-05
16 *128:8 *3123:I 0.000317494
17 *199:41 *409:12 0.000453575
18 *204:12 *3214:A1 4.60055e-05
19 *205:6 *3123:I 0.000723683
20 *209:6 *3123:I 0
21 *336:19 *409:12 0.000151949
22 *336:32 *409:12 0.000562328
*RES
1 *3500:Q *409:8 5.716 
2 *409:8 *409:12 7.008 
3 *409:12 *3123:I 11.204 
4 *409:12 *3214:A1 9.988 
5 *409:8 *3210:A1 4.5 
*END

*D_NET *410 0.00282111
*CONN
*I *3217:A1 I *D gf180mcu_fd_sc_mcu7t5v0__xnor2_1
*I *3200:A1 I *D gf180mcu_fd_sc_mcu7t5v0__aoi21_1
*I *3330:I0 I *D gf180mcu_fd_sc_mcu7t5v0__mux2_2
*I *3216:A1 I *D gf180mcu_fd_sc_mcu7t5v0__xor2_1
*I *3501:Q O *D gf180mcu_fd_sc_mcu7t5v0__dffrnq_1
*CAP
1 *3217:A1 9.91798e-05
2 *3200:A1 0
3 *3330:I0 0.000351203
4 *3216:A1 0.000234255
5 *3501:Q 0.000147152
6 *410:28 0.000524916
7 *410:22 0.000359996
8 *3200:A2 *3217:A1 1.8655e-05
9 *3200:A2 *410:28 2.9378e-06
10 *3200:B *410:28 1.5015e-05
11 *3216:A2 *3217:A1 7.26603e-05
12 *3217:A2 *3217:A1 0.00018927
13 *3330:S *3330:I0 0.000147305
14 *193:10 *410:28 3.71997e-05
15 *195:14 *410:22 0.000117421
16 *195:14 *410:28 0.000222721
17 *343:442 *3330:I0 0
18 *343:457 *3217:A1 0.000193889
19 *343:457 *3330:I0 0
20 *343:457 *410:28 0
21 *390:72 *3216:A1 0
22 *390:81 *3216:A1 0
23 *396:23 *3216:A1 8.7332e-05
*RES
1 *3501:Q *3216:A1 10.064 
2 *3216:A1 *410:22 9.684 
3 *410:22 *410:28 6.172 
4 *410:28 *3330:I0 6.704 
5 *410:28 *3200:A1 4.5 
6 *410:22 *3217:A1 10.14 
*END

*D_NET *411 0.00814458
*CONN
*I *3284:A1 I *D gf180mcu_fd_sc_mcu7t5v0__nand2_1
*I *3285:A1 I *D gf180mcu_fd_sc_mcu7t5v0__oai21_1
*I *3222:B I *D gf180mcu_fd_sc_mcu7t5v0__aoi21_1
*I *3226:A2 I *D gf180mcu_fd_sc_mcu7t5v0__aoi211_1
*I *3227:A1 I *D gf180mcu_fd_sc_mcu7t5v0__nor3_1
*I *3225:A1 I *D gf180mcu_fd_sc_mcu7t5v0__and2_1
*I *3221:A1 I *D gf180mcu_fd_sc_mcu7t5v0__nor2_1
*I *3478:Q O *D gf180mcu_fd_sc_mcu7t5v0__dffrnq_1
*CAP
1 *3284:A1 0
2 *3285:A1 0.000329742
3 *3222:B 0
4 *3226:A2 0.000111838
5 *3227:A1 0.000104599
6 *3225:A1 5.84988e-05
7 *3221:A1 0.000115449
8 *3478:Q 1.99702e-05
9 *411:73 0.000541084
10 *411:42 0.000403006
11 *411:36 0.000327382
12 *411:21 0.000241773
13 *411:10 0.000296919
14 *411:6 0.000370321
15 *3225:A1 *3225:A2 2.49331e-05
16 *3227:A1 *412:12 0.00013063
17 *411:10 *3286:A1 0.000193146
18 *411:21 *3286:A1 6.70219e-05
19 *411:21 *412:25 0.000161163
20 *411:36 *412:21 2.52289e-05
21 *411:36 *412:23 0.000252011
22 *411:36 *412:25 6.22815e-05
23 *411:42 *412:21 5.76373e-06
24 *3222:A1 *3226:A2 0.000382998
25 *3222:A1 *411:42 0.000523951
26 *3223:I *3227:A1 0.000241984
27 *3223:I *411:42 7.54771e-06
28 *3228:A1 *3226:A2 0.000193448
29 *3228:A2 *3227:A1 7.14226e-05
30 *3282:A2 *3221:A1 0
31 *3283:A2 *3221:A1 5.76373e-06
32 *3285:A2 *3285:A1 1.81922e-05
33 *3285:B *3285:A1 0.000111049
34 *3287:A1 *3221:A1 0.00012749
35 *3287:A2 *411:21 0.000396904
36 *3287:A2 *411:36 0.0003062
37 *3296:B *411:73 1.91917e-06
38 *3425:CLK *3221:A1 0
39 *3425:CLK *411:6 8.04139e-05
40 *3425:CLK *411:73 0.000312831
41 *3478:D *3285:A1 0.000134622
42 *3478:RN *3285:A1 0
43 *3479:RN *3226:A2 9.59747e-05
44 *3479:RN *411:42 0.000101246
45 *219:17 *411:36 0.000406043
46 *219:17 *411:42 1.04779e-05
47 *222:12 *3226:A2 0.000246194
48 *257:10 *3221:A1 1.0392e-05
49 *257:10 *3225:A1 2.85028e-05
50 *257:10 *411:10 0.00016003
51 *257:10 *411:21 3.37485e-05
52 *257:16 *3285:A1 2.88155e-05
53 *257:16 *411:6 1.33547e-05
54 *257:16 *411:10 4.58467e-05
55 *257:16 *411:73 4.53143e-05
56 *258:10 *3285:A1 0
57 *258:10 *411:73 0
58 *321:6 *3285:A1 3.07734e-05
59 *321:12 *3285:A1 0.000128373
*RES
1 *3478:Q *411:6 4.728 
2 *411:6 *411:10 6.096 
3 *411:10 *3221:A1 9.836 
4 *411:10 *411:21 1.292 
5 *411:21 *3225:A1 9.38 
6 *411:21 *411:36 6.78 
7 *411:36 *411:42 6.324 
8 *411:42 *3227:A1 10.14 
9 *411:42 *3226:A2 10.672 
10 *411:36 *3222:B 4.5 
11 *411:6 *411:73 6.324 
12 *411:73 *3285:A1 11.736 
13 *411:73 *3284:A1 9 
*END

*D_NET *412 0.00434651
*CONN
*I *3227:A2 I *D gf180mcu_fd_sc_mcu7t5v0__nor3_1
*I *3225:A2 I *D gf180mcu_fd_sc_mcu7t5v0__and2_1
*I *3221:A2 I *D gf180mcu_fd_sc_mcu7t5v0__nor2_1
*I *3286:A1 I *D gf180mcu_fd_sc_mcu7t5v0__nand2_1
*I *3222:A2 I *D gf180mcu_fd_sc_mcu7t5v0__aoi21_1
*I *3479:Q O *D gf180mcu_fd_sc_mcu7t5v0__dffrnq_1
*CAP
1 *3227:A2 4.69113e-05
2 *3225:A2 0.000111428
3 *3221:A2 0
4 *3286:A1 0.000172891
5 *3222:A2 0
6 *3479:Q 0.000142226
7 *412:25 0.000284316
8 *412:23 0.000430388
9 *412:21 0.00037418
10 *412:12 0.00026196
11 *3222:A1 *412:12 0.000324233
12 *3223:I *412:21 0.000173384
13 *3225:A1 *3225:A2 2.49331e-05
14 *3227:A1 *412:12 0.00013063
15 *3228:A2 *412:12 0.000113695
16 *3282:A1 *3286:A1 0.000116256
17 *3282:A1 *412:25 6.49724e-05
18 *3425:CLK *3286:A1 0.000160637
19 *3531:I *3227:A2 0
20 *3531:I *412:23 0
21 *219:17 *3227:A2 3.19947e-05
22 *219:17 *412:12 0.000142176
23 *219:17 *412:23 0.000102094
24 *257:10 *3225:A2 9.57807e-06
25 *258:8 *3286:A1 0.000361006
26 *411:10 *3286:A1 0.000193146
27 *411:21 *3286:A1 6.70219e-05
28 *411:21 *412:25 0.000161163
29 *411:36 *412:21 2.52289e-05
30 *411:36 *412:23 0.000252011
31 *411:36 *412:25 6.22815e-05
32 *411:42 *412:21 5.76373e-06
*RES
1 *3479:Q *412:12 15.172 
2 *412:12 *3222:A2 4.5 
3 *412:12 *412:21 5.336 
4 *412:21 *412:23 2.204 
5 *412:23 *412:25 1.292 
6 *412:25 *3286:A1 11.432 
7 *412:25 *3221:A2 9 
8 *412:23 *3225:A2 9.532 
9 *412:21 *3227:A2 9.38 
*END

*D_NET *413 0.00389969
*CONN
*I *3289:A2 I *D gf180mcu_fd_sc_mcu7t5v0__and3_1
*I *3288:B I *D gf180mcu_fd_sc_mcu7t5v0__aoi21_1
*I *3224:A1 I *D gf180mcu_fd_sc_mcu7t5v0__nand2_1
*I *3227:A3 I *D gf180mcu_fd_sc_mcu7t5v0__nor3_1
*I *3480:Q O *D gf180mcu_fd_sc_mcu7t5v0__dffrnq_1
*CAP
1 *3289:A2 5.3356e-05
2 *3288:B 0
3 *3224:A1 4.79734e-05
4 *3227:A3 0.000301537
5 *3480:Q 0.000161958
6 *413:18 0.000535305
7 *413:12 0.000247023
8 *413:10 0.000276543
9 *3223:I *3227:A3 0.000179609
10 *3224:A2 *3224:A1 4.58601e-06
11 *3224:A2 *3227:A3 8.06016e-05
12 *3229:B *413:18 0.000151728
13 *3243:A2 *413:18 0.000181432
14 *3243:C *3224:A1 3.83835e-06
15 *3288:A2 *3289:A2 0.000200913
16 *3289:A1 *3289:A2 0.000494087
17 *3290:A2 *413:10 0.000102192
18 *3480:D *413:10 1.27163e-05
19 *3513:D *413:10 6.12154e-05
20 *3513:D *413:12 2.71172e-05
21 *218:8 *413:18 0.00051482
22 *222:12 *3227:A3 0
23 *256:21 *413:10 5.46321e-06
24 *256:21 *413:12 3.15814e-05
25 *256:21 *413:18 0.000145273
26 *392:50 *413:12 1.31444e-05
27 *392:50 *413:18 1.16164e-05
28 *392:54 *3289:A2 2.6126e-05
29 *392:54 *413:10 2.7935e-05
*RES
1 *3480:Q *413:10 10.368 
2 *413:10 *413:12 0.532 
3 *413:12 *413:18 6.932 
4 *413:18 *3227:A3 6.704 
5 *413:18 *3224:A1 4.728 
6 *413:12 *3288:B 9 
7 *413:10 *3289:A2 10.292 
*END

*D_NET *414 0.00131052
*CONN
*I *3291:A1 I *D gf180mcu_fd_sc_mcu7t5v0__xnor2_1
*I *3226:B I *D gf180mcu_fd_sc_mcu7t5v0__aoi211_1
*I *3481:Q O *D gf180mcu_fd_sc_mcu7t5v0__dffrnq_1
*CAP
1 *3291:A1 4.67718e-05
2 *3226:B 0.000125321
3 *3481:Q 9.57981e-05
4 *414:6 0.000267891
5 *3291:A2 *3291:A1 8.55327e-05
6 *322:23 *3291:A1 0
7 *322:23 *414:6 0
8 *343:234 *3291:A1 5.87561e-06
9 *343:234 *414:6 3.23271e-05
10 *379:44 *3226:B 0.000650998
*RES
1 *3481:Q *414:6 5.032 
2 *414:6 *3226:B 15.096 
3 *414:6 *3291:A1 4.88 
*END

*D_NET *415 0.00366331
*CONN
*I *3167:C I *D gf180mcu_fd_sc_mcu7t5v0__aoi221_1
*I *3508:Q O *D gf180mcu_fd_sc_mcu7t5v0__dffrnq_1
*CAP
1 *3167:C 0.00093691
2 *3508:Q 0.00093691
3 *3158:A1 *3167:C 0
4 *3168:B *3167:C 0.00022273
5 *3508:RN *3167:C 4.79898e-05
6 *3578:I *3167:C 0.00086116
7 *90:10 *3167:C 0.000387757
8 *161:14 *3167:C 0.000269857
*RES
1 *3508:Q *3167:C 27.12 
*END

*D_NET *416 0.00314729
*CONN
*I *3113:I I *D gf180mcu_fd_sc_mcu7t5v0__clkinv_1
*I *3546:I I *D gf180mcu_fd_sc_mcu7t5v0__dlyc_1
*I *3518:Q O *D gf180mcu_fd_sc_mcu7t5v0__dffrnq_1
*CAP
1 *3113:I 0.000114683
2 *3546:I 0.000302119
3 *3518:Q 0.000169592
4 *416:8 0.000586394
5 *3113:I *3152:A2 0
6 *3113:I *417:27 0.000223261
7 *3546:I *3147:A2 3.73627e-05
8 *416:8 *417:27 0.000483264
9 *416:8 *420:12 9.02673e-05
10 *3161:B *3113:I 1.15275e-05
11 *3166:A2 *3546:I 9.86399e-05
12 *3504:D *416:8 0.000317503
13 *123:8 *3113:I 8.04285e-05
14 *329:294 *3546:I 0.000632245
*RES
1 *3518:Q *416:8 6.78 
2 *416:8 *3546:I 16.54 
3 *416:8 *3113:I 5.792 
*END

*D_NET *417 0.0108633
*CONN
*I *3112:I I *D gf180mcu_fd_sc_mcu7t5v0__clkinv_1
*I *3163:B I *D gf180mcu_fd_sc_mcu7t5v0__oai21_1
*I *3162:A1 I *D gf180mcu_fd_sc_mcu7t5v0__oai31_1
*I *3549:I I *D gf180mcu_fd_sc_mcu7t5v0__dlyc_1
*I *3519:Q O *D gf180mcu_fd_sc_mcu7t5v0__dffrnq_1
*CAP
1 *3112:I 0.000349223
2 *3163:B 0.000122404
3 *3162:A1 0
4 *3549:I 7.46e-05
5 *3519:Q 0.00104945
6 *417:38 0.000641486
7 *417:27 0.0010968
8 *417:8 0.00205099
9 *3549:I *3150:A1 3.71678e-05
10 *417:8 *3254:B2 0
11 *417:8 *3351:I1 0
12 *417:27 *3152:A2 0
13 *417:27 *3254:A1 0.00015919
14 *417:27 *3339:A1 8.24076e-05
15 *417:27 *420:12 5.82534e-05
16 *417:27 *934:29 0.000113118
17 *3113:I *417:27 0.000223261
18 *3161:A1 *417:38 0
19 *3161:B *417:27 0
20 *3164:A1 *3163:B 9.5608e-06
21 *3166:B *3112:I 0.000269291
22 *3167:A2 *3112:I 5.27305e-05
23 *3254:A2 *3549:I 7.83779e-05
24 *3254:A2 *417:8 0.000343587
25 *3254:A2 *417:27 7.48834e-05
26 *3268:A1 *417:8 0
27 *3339:A2 *417:27 0.000107858
28 *3340:B *417:27 0.00032464
29 *3344:A2 *417:8 0
30 *3460:SETN *417:8 0.000158743
31 *3462:CLK *417:27 7.22665e-05
32 *3537:I *3112:I 5.66861e-05
33 *3537:I *417:38 0.000344191
34 *150:8 *3112:I 0.000269291
35 *152:14 *3163:B 2.49387e-05
36 *152:14 *417:38 0.000602423
37 *157:36 *3112:I 0.00018116
38 *157:36 *417:38 2.93981e-05
39 *157:44 *3112:I 0.000255707
40 *283:43 *3549:I 4.17433e-06
41 *283:43 *417:27 0.000117704
42 *328:42 *417:27 0.000209639
43 *328:42 *417:38 0.000104697
44 *328:51 *417:27 0.000311362
45 *329:294 *3163:B 0
46 *330:44 *417:8 0
47 *343:621 *417:8 0.000318428
48 *416:8 *417:27 0.000483264
*RES
1 *3519:Q *417:8 16.828 
2 *417:8 *3549:I 9.532 
3 *417:8 *417:27 14.076 
4 *417:27 *3162:A1 4.5 
5 *417:27 *417:38 7.084 
6 *417:38 *3163:B 9.684 
7 *417:38 *3112:I 12.952 
*END

*D_NET *418 0.00907573
*CONN
*I *3167:A1 I *D gf180mcu_fd_sc_mcu7t5v0__aoi221_1
*I *3111:I I *D gf180mcu_fd_sc_mcu7t5v0__clkinv_1
*I *3548:I I *D gf180mcu_fd_sc_mcu7t5v0__dlyc_1
*I *3520:Q O *D gf180mcu_fd_sc_mcu7t5v0__dffrnq_1
*CAP
1 *3167:A1 9.12707e-05
2 *3111:I 0
3 *3548:I 7.4856e-05
4 *3520:Q 0.000602108
5 *418:23 0.000950394
6 *418:8 0.00153609
7 *418:8 *3518:D 0.000117625
8 *418:23 *3262:A1 0.000433917
9 *418:23 *422:12 7.98438e-05
10 *3146:A2 *418:23 0
11 *3157:A1 *418:23 2.96621e-05
12 *3157:A2 *3167:A1 1.44832e-05
13 *3157:B *3167:A1 2.96621e-05
14 *3157:B *418:23 0.000145228
15 *3158:A1 *3167:A1 0
16 *3167:A2 *3167:A1 0
17 *3451:RN *418:23 9.88736e-06
18 *3462:CLK *3548:I 0.000255714
19 *3505:CLK *418:23 3.40956e-05
20 *3506:D *418:23 3.4869e-05
21 *3520:RN *418:8 0.000387757
22 *144:33 *418:23 2.17434e-05
23 *161:14 *3167:A1 0.000260718
24 *161:14 *418:23 5.61561e-05
25 *329:168 *418:23 0.00149714
26 *329:170 *418:8 0.000789242
27 *329:170 *418:23 0.000151957
28 *329:172 *418:8 0.000105286
29 *329:174 *418:8 0.00135685
30 *382:14 *418:23 9.17202e-06
*RES
1 *3520:Q *418:8 15.764 
2 *418:8 *3548:I 9.684 
3 *418:8 *418:23 12.708 
4 *418:23 *3111:I 4.5 
5 *418:23 *3167:A1 14.412 
*END

*D_NET *419 0.00848323
*CONN
*I *3169:A1 I *D gf180mcu_fd_sc_mcu7t5v0__and2_1
*I *3353:I1 I *D gf180mcu_fd_sc_mcu7t5v0__mux2_2
*I *3260:B2 I *D gf180mcu_fd_sc_mcu7t5v0__aoi221_1
*I *3462:Q O *D gf180mcu_fd_sc_mcu7t5v0__dffsnq_1
*CAP
1 *3169:A1 0.00089056
2 *3353:I1 0.000479869
3 *3260:B2 0
4 *3462:Q 5.54271e-05
5 *419:14 0.000506992
6 *419:6 0.000973111
7 *3169:A1 *3254:A1 0.000806946
8 *3169:A1 *3262:A1 0.000141629
9 *3169:A1 *3267:A1 0
10 *3353:I1 *3260:A1 0
11 *419:14 *3254:A1 0.000634991
12 *3260:A2 *419:14 0.000641843
13 *3260:B1 *3353:I1 1.02578e-05
14 *3261:B2 *3353:I1 0
15 *3262:A2 *3169:A1 1.76898e-05
16 *3262:B *419:6 0.00018927
17 *3262:B *419:14 5.22519e-05
18 *3268:A1 *3169:A1 0.000400401
19 *3268:A1 *3353:I1 8.21884e-05
20 *3331:A2 *3169:A1 0.00024151
21 *3340:A1 *3353:I1 5.75752e-06
22 *3340:B *3353:I1 0.000775767
23 *3451:RN *3353:I1 0
24 *3505:CLK *3353:I1 0
25 *3507:D *3169:A1 0.000149579
26 *90:12 *3169:A1 7.83779e-05
27 *144:33 *3169:A1 2.60662e-05
28 *239:27 *3169:A1 0.000196417
29 *247:10 *3169:A1 2.6126e-05
30 *247:10 *419:6 5.55e-05
31 *251:8 *3169:A1 6.7497e-05
32 *328:97 *3169:A1 0.000487095
33 *328:103 *3169:A1 0.000376089
34 *329:55 *3169:A1 2.9378e-06
35 *329:55 *3353:I1 0
36 *329:55 *419:6 2.58957e-05
37 *329:61 *3169:A1 8.51843e-05
*RES
1 *3462:Q *419:6 5.184 
2 *419:6 *419:14 10.824 
3 *419:14 *3260:B2 4.5 
4 *419:14 *3353:I1 17.3 
5 *419:6 *3169:A1 24.672 
*END

*D_NET *420 0.00594771
*CONN
*I *3152:A2 I *D gf180mcu_fd_sc_mcu7t5v0__oai21_1
*I *3115:I I *D gf180mcu_fd_sc_mcu7t5v0__clkinv_1
*I *3254:C2 I *D gf180mcu_fd_sc_mcu7t5v0__aoi222_1
*I *3449:Q O *D gf180mcu_fd_sc_mcu7t5v0__dffrnq_1
*CAP
1 *3152:A2 0.000547086
2 *3115:I 0
3 *3254:C2 0.000639567
4 *3449:Q 0.000398645
5 *420:18 0.00102029
6 *420:12 0.00132645
7 *3152:A2 *3150:A1 5.93488e-05
8 *3254:C2 *3150:A1 0
9 *3254:C2 *3254:B2 6.00599e-05
10 *420:12 *3150:A1 0
11 *3113:I *3152:A2 0
12 *3152:A1 *3152:A2 1.52768e-05
13 *3152:B *3152:A2 1.91917e-06
14 *3161:A1 *3152:A2 0.000406668
15 *3161:A2 *3152:A2 5.79153e-05
16 *3161:B *3152:A2 0.000248051
17 *3254:C1 *3254:C2 3.08902e-05
18 *3449:RN *420:12 3.82027e-05
19 *3504:D *3152:A2 1.47088e-05
20 *3504:D *420:12 1.52768e-05
21 *3504:D *420:18 0.000418142
22 *3504:CLK *3254:C2 2.22657e-05
23 *3534:I *3254:C2 0.000278037
24 *3556:I *3152:A2 6.74514e-05
25 *329:174 *420:18 0
26 *330:42 *3254:C2 0.000132943
27 *416:8 *420:12 9.02673e-05
28 *417:27 *3152:A2 0
29 *417:27 *420:12 5.82534e-05
*RES
1 *3449:Q *420:12 7.388 
2 *420:12 *420:18 11.508 
3 *420:18 *3254:C2 9.288 
4 *420:18 *3115:I 4.5 
5 *420:12 *3152:A2 9.212 
*END

*D_NET *421 0.0130059
*CONN
*I *3149:A1 I *D gf180mcu_fd_sc_mcu7t5v0__nand2_1
*I *3151:A1 I *D gf180mcu_fd_sc_mcu7t5v0__xor2_1
*I *3338:I1 I *D gf180mcu_fd_sc_mcu7t5v0__mux2_2
*I *3150:A1 I *D gf180mcu_fd_sc_mcu7t5v0__xnor2_1
*I *3257:A1 I *D gf180mcu_fd_sc_mcu7t5v0__aoi221_1
*I *3450:Q O *D gf180mcu_fd_sc_mcu7t5v0__dffrnq_1
*CAP
1 *3149:A1 0.000361959
2 *3151:A1 0
3 *3338:I1 0.000480667
4 *3150:A1 0.00209121
5 *3257:A1 0
6 *3450:Q 0.000129629
7 *421:68 0.000457469
8 *421:22 0.00269178
9 *421:6 0.00130638
10 *3150:A1 *3254:B2 1.23828e-05
11 *3338:I1 *427:23 0
12 *421:6 *937:12 0
13 *421:22 *3256:A1 1.88006e-05
14 *421:22 *3272:I0 5.92609e-05
15 *3150:A2 *3149:A1 1.02578e-05
16 *3150:A2 *421:68 8.23448e-05
17 *3151:A2 *3150:A1 0
18 *3152:A1 *3149:A1 0.000204674
19 *3152:A2 *3150:A1 5.93488e-05
20 *3152:B *3150:A1 1.91917e-06
21 *3152:B *421:68 0
22 *3161:A2 *3149:A1 9.57914e-06
23 *3254:A2 *3150:A1 8.64836e-05
24 *3254:B1 *3150:A1 0
25 *3254:C2 *3150:A1 0
26 *3255:A1 *3150:A1 0.000168196
27 *3255:A2 *3150:A1 0.000132493
28 *3256:A2 *3150:A1 0
29 *3256:A2 *421:22 6.3862e-05
30 *3258:B1 *421:22 2.11616e-05
31 *3258:B2 *3150:A1 6.18756e-05
32 *3258:B2 *421:22 1.68098e-05
33 *3343:S *3338:I1 0.000134113
34 *3442:D *3150:A1 1.15275e-05
35 *3442:CLKN *3150:A1 5.76749e-06
36 *3442:CLKN *421:22 0.000827951
37 *3443:D *421:22 0.000300828
38 *3449:RN *3150:A1 9.56442e-06
39 *3468:RN *3149:A1 6.17803e-05
40 *3468:RN *3150:A1 2.00862e-05
41 *3468:RN *421:68 0.000412495
42 *3504:CLK *3150:A1 0
43 *3518:RN *3150:A1 8.81341e-06
44 *3534:I *3150:A1 0
45 *3535:I *3338:I1 9.84403e-05
46 *3537:I *3149:A1 5.83532e-07
47 *3542:I *421:6 0.000400645
48 *3542:I *421:22 4.98138e-05
49 *3549:I *3150:A1 3.71678e-05
50 *3556:I *3150:A1 0.00027874
51 *3567:I *421:6 7.42484e-05
52 *3567:I *421:22 5.97012e-05
53 *156:8 *3149:A1 0.000179251
54 *156:19 *3149:A1 0.000151957
55 *240:52 *421:22 4.79491e-05
56 *240:65 *3150:A1 0.000145978
57 *240:65 *421:22 3.37994e-05
58 *283:12 *421:22 0.000239048
59 *283:43 *3150:A1 0
60 *283:43 *421:22 0.000234183
61 *287:8 *3338:I1 0.000148623
62 *287:21 *3338:I1 7.6687e-05
63 *326:16 *421:6 0.00020108
64 *330:8 *3338:I1 0.000179929
65 *330:12 *3338:I1 3.45972e-05
66 *333:18 *421:22 0
67 *381:8 *3149:A1 1.20079e-05
68 *420:12 *3150:A1 0
*RES
1 *3450:Q *421:6 6.096 
2 *421:6 *421:22 15.536 
3 *421:22 *3257:A1 4.5 
4 *421:22 *3150:A1 18.256 
5 *421:6 *3338:I1 17.528 
6 *3150:A1 *421:68 5.64 
7 *421:68 *3151:A1 4.5 
8 *421:68 *3149:A1 16.084 
*END

*D_NET *422 0.00491589
*CONN
*I *3147:A2 I *D gf180mcu_fd_sc_mcu7t5v0__xnor2_1
*I *3260:A1 I *D gf180mcu_fd_sc_mcu7t5v0__aoi221_1
*I *3136:I I *D gf180mcu_fd_sc_mcu7t5v0__clkinv_1
*I *3451:Q O *D gf180mcu_fd_sc_mcu7t5v0__dffrnq_1
*CAP
1 *3147:A2 0.000206343
2 *3260:A1 0.000579506
3 *3136:I 0
4 *3451:Q 0.000254913
5 *422:21 0.000896369
6 *422:12 0.000365433
7 *422:12 *3262:A1 0.00048115
8 *3146:A2 *3147:A2 0
9 *3146:A2 *3260:A1 0
10 *3146:A2 *422:21 2.22758e-05
11 *3147:A1 *3147:A2 0.000439452
12 *3147:A1 *422:12 5.72229e-05
13 *3261:B2 *3260:A1 7.83779e-05
14 *3340:A1 *3260:A1 0.000425705
15 *3340:A1 *422:21 0
16 *3353:I1 *3260:A1 0
17 *3451:D *3260:A1 0.000770391
18 *3462:D *3260:A1 0
19 *3546:I *3147:A2 3.73627e-05
20 *144:33 *422:12 7.57767e-05
21 *329:294 *3147:A2 2.01934e-05
22 *329:294 *422:12 6.04444e-06
23 *382:14 *422:12 0.000119534
24 *418:23 *422:12 7.98438e-05
*RES
1 *3451:Q *422:12 16.844 
2 *422:12 *3136:I 4.5 
3 *422:12 *422:21 0.912 
4 *422:21 *3260:A1 9.44 
5 *422:21 *3147:A2 6.248 
*END

*D_NET *423 0.00157144
*CONN
*I *3139:I I *D gf180mcu_fd_sc_mcu7t5v0__clkinv_1
*I *3263:A1 I *D gf180mcu_fd_sc_mcu7t5v0__aoi22_1
*I *3452:Q O *D gf180mcu_fd_sc_mcu7t5v0__dffrnq_1
*CAP
1 *3139:I 0.000129733
2 *3263:A1 0.00023474
3 *3452:Q 0
4 *423:4 0.000364473
5 *3139:I *3253:A2 0
6 *3263:A1 *3253:A2 9.88736e-06
7 *3342:A1 *3263:A1 1.31444e-05
8 *3452:RN *3263:A1 1.1971e-05
9 *144:33 *3139:I 0
10 *240:10 *3263:A1 7.83779e-05
11 *240:14 *3263:A1 0.000451288
12 *240:83 *3139:I 2.30587e-05
13 *240:83 *3263:A1 6.63473e-05
14 *241:10 *3263:A1 0.000188422
*RES
1 *3452:Q *423:4 4.5 
2 *423:4 *3263:A1 15.78 
3 *423:4 *3139:I 5.488 
*END

*D_NET *424 0.00206384
*CONN
*I *3518:D I *D gf180mcu_fd_sc_mcu7t5v0__dffrnq_1
*I *3275:Z O *D gf180mcu_fd_sc_mcu7t5v0__or3_1
*CAP
1 *3518:D 0.000509516
2 *3275:Z 0.000509516
3 *3272:I1 *3518:D 0.000298454
4 *3337:A1 *3518:D 0.000298454
5 *3520:RN *3518:D 8.05328e-05
6 *327:31 *3518:D 0.000230028
7 *327:71 *3518:D 1.97166e-05
8 *330:44 *3518:D 0
9 *374:25 *3518:D 0
10 *418:8 *3518:D 0.000117625
*RES
1 *3275:Z *3518:D 23.472 
*END

*D_NET *425 0.00120134
*CONN
*I *3552:I I *D gf180mcu_fd_sc_mcu7t5v0__dlyc_1
*I *3276:ZN O *D gf180mcu_fd_sc_mcu7t5v0__oai21_1
*CAP
1 *3552:I 0.000346283
2 *3276:ZN 0.000346283
3 *3552:I *3276:A2 9.52854e-05
4 *3552:I *3551:I 6.31406e-05
5 *3552:I *625:20 0.000171875
6 *3552:I *875:8 4.84399e-05
7 *3276:A1 *3552:I 7.30256e-05
8 *325:71 *3552:I 0
9 *343:615 *3552:I 5.70103e-05
*RES
1 *3276:ZN *3552:I 21.42 
*END

*D_NET *426 0.00180002
*CONN
*I *3520:D I *D gf180mcu_fd_sc_mcu7t5v0__dffrnq_1
*I *3275:A3 I *D gf180mcu_fd_sc_mcu7t5v0__or3_1
*I *3274:Z O *D gf180mcu_fd_sc_mcu7t5v0__or2_1
*CAP
1 *3520:D 0.000126146
2 *3275:A3 0
3 *3274:Z 0.000446884
4 *426:10 0.00057303
5 *426:10 *3277:I0 0
6 *3273:I1 *3520:D 0.000495697
7 *327:31 *426:10 0
8 *374:25 *426:10 0.000158263
9 *374:31 *426:10 0
*RES
1 *3274:Z *426:10 16.768 
2 *426:10 *3275:A3 4.5 
3 *426:10 *3520:D 5.792 
*END

*D_NET *427 0.0081852
*CONN
*I *3257:B2 I *D gf180mcu_fd_sc_mcu7t5v0__aoi221_1
*I *3273:S I *D gf180mcu_fd_sc_mcu7t5v0__mux2_2
*I *3272:S I *D gf180mcu_fd_sc_mcu7t5v0__mux2_2
*I *3352:I1 I *D gf180mcu_fd_sc_mcu7t5v0__mux2_2
*I *3461:Q O *D gf180mcu_fd_sc_mcu7t5v0__dffsnq_1
*CAP
1 *3257:B2 0
2 *3273:S 0.000749089
3 *3272:S 0
4 *3352:I1 0.000453563
5 *3461:Q 0
6 *427:40 0.00100397
7 *427:23 0.000748891
8 *427:6 0.000947569
9 *3273:S *3259:A1 0.000104694
10 *3352:I1 *3352:I0 0
11 *3352:I1 *936:25 0
12 *427:23 *3265:B2 0.000317503
13 *427:23 *3338:I0 0.000210044
14 *427:40 *3265:B2 0.000114041
15 *427:40 *3272:I0 6.31119e-05
16 *3265:A1 *3273:S 0.000109188
17 *3338:I1 *427:23 0
18 *3352:S *3352:I1 5.33906e-05
19 *3442:CLKN *3273:S 0.000149334
20 *3450:D *427:23 1.80248e-05
21 *3461:D *3352:I1 8.7332e-05
22 *3502:RN *3273:S 0
23 *3502:RN *427:40 6.06919e-05
24 *3534:I *427:23 0.000257421
25 *330:42 *427:23 0.000787074
26 *330:42 *427:40 0.000428732
27 *337:29 *427:40 0.00012193
28 *337:33 *427:40 4.58601e-06
29 *343:46 *3352:I1 0.000396912
30 *343:46 *427:23 0.000998099
*RES
1 *3461:Q *427:6 9 
2 *427:6 *3352:I1 12.496 
3 *427:6 *427:23 11.036 
4 *427:23 *3272:S 4.5 
5 *427:23 *427:40 11.736 
6 *427:40 *3273:S 18.744 
7 *427:40 *3257:B2 4.5 
*END

*D_NET *428 0.00383211
*CONN
*I *3277:I0 I *D gf180mcu_fd_sc_mcu7t5v0__mux4_1
*I *3275:A1 I *D gf180mcu_fd_sc_mcu7t5v0__or3_1
*I *3418:Q O *D gf180mcu_fd_sc_mcu7t5v0__dffrnq_1
*CAP
1 *3277:I0 0.000293572
2 *3275:A1 0
3 *3418:Q 0.000581186
4 *428:8 0.000874758
5 *3277:I0 *3277:I1 0
6 *428:8 *3275:A2 0.000204521
7 *428:8 *625:14 0.000528387
8 *3344:A2 *428:8 0
9 *327:33 *3277:I0 0.000433917
10 *327:33 *428:8 0.000336482
11 *327:39 *428:8 0.000424397
12 *374:31 *428:8 0
13 *379:44 *428:8 0.000154889
14 *426:10 *3277:I0 0
*RES
1 *3418:Q *428:8 10.124 
2 *428:8 *3275:A1 4.5 
3 *428:8 *3277:I0 15.856 
*END

*D_NET *429 0.00217049
*CONN
*I *3418:D I *D gf180mcu_fd_sc_mcu7t5v0__dffrnq_1
*I *3170:Z O *D gf180mcu_fd_sc_mcu7t5v0__xor2_1
*CAP
1 *3418:D 0.000547279
2 *3170:Z 0.000547279
3 *3418:D *3521:I 0.000183182
4 *3130:I *3418:D 9.4764e-05
5 *325:83 *3418:D 0.000321568
6 *343:182 *3418:D 0.000199393
7 *343:191 *3418:D 0.000277023
*RES
1 *3170:Z *3418:D 14.548 
*END

*D_NET *430 0.00321474
*CONN
*I *3170:A1 I *D gf180mcu_fd_sc_mcu7t5v0__xor2_1
*I *3521:I I *D gf180mcu_fd_sc_mcu7t5v0__buf_1
*I *3116:I I *D gf180mcu_fd_sc_mcu7t5v0__clkinv_1
*I *3592:I I *D gf180mcu_fd_sc_mcu7t5v0__inv_2
*I *3419:Q O *D gf180mcu_fd_sc_mcu7t5v0__dffrnq_2
*CAP
1 *3170:A1 1.61535e-05
2 *3521:I 0.000172603
3 *3116:I 0
4 *3592:I 0.000168481
5 *3419:Q 0.000274918
6 *430:32 0.000188757
7 *430:12 0.000598987
8 *430:10 0.000705424
9 *3521:I *3693:I 0
10 *3592:I *3706:I 0.00010769
11 *430:10 *3522:I 0.00021548
12 *3418:D *3521:I 0.000183182
13 *3419:RN *430:10 5.76373e-06
14 *325:89 *3170:A1 8.55242e-05
15 *325:89 *3521:I 0.000338727
16 *325:89 *430:10 1.28836e-05
17 *343:182 *3521:I 0.000140167
*RES
1 *3419:Q *430:10 10.824 
2 *430:10 *430:12 2.812 
3 *430:12 *3592:I 10.064 
4 *430:12 *3116:I 9 
5 *430:10 *430:32 4.5 
6 *430:32 *3521:I 6.78 
7 *430:32 *3170:A1 4.728 
*END

*D_NET *431 0.000476372
*CONN
*I *3593:I I *D gf180mcu_fd_sc_mcu7t5v0__inv_2
*I *3782:ZN O *D gf180mcu_fd_sc_mcu7t5v0__inv_2
*CAP
1 *3593:I 0.000148379
2 *3782:ZN 0.000148379
3 *3593:I *3594:I 7.53241e-05
4 *3593:I *3595:I 2.89664e-05
5 *3593:I *3782:I 7.53241e-05
*RES
1 *3782:ZN *3593:I 10.368 
*END

*D_NET *432 0.000417856
*CONN
*I *3594:I I *D gf180mcu_fd_sc_mcu7t5v0__inv_2
*I *3593:ZN O *D gf180mcu_fd_sc_mcu7t5v0__inv_2
*CAP
1 *3594:I 5.66278e-05
2 *3593:ZN 5.66278e-05
3 *3594:I *3595:I 0.00020108
4 *3594:I *3596:I 2.30549e-05
5 *3594:I *3782:I 5.14116e-06
6 *3593:I *3594:I 7.53241e-05
*RES
1 *3593:ZN *3594:I 9.836 
*END

*D_NET *433 0.000784037
*CONN
*I *3595:I I *D gf180mcu_fd_sc_mcu7t5v0__inv_2
*I *3594:ZN O *D gf180mcu_fd_sc_mcu7t5v0__inv_2
*CAP
1 *3595:I 0.000198384
2 *3594:ZN 0.000198384
3 *3595:I *3596:I 0.000157223
4 *3593:I *3595:I 2.89664e-05
5 *3594:I *3595:I 0.00020108
*RES
1 *3594:ZN *3595:I 10.9 
*END

*D_NET *434 0.00138573
*CONN
*I *3596:I I *D gf180mcu_fd_sc_mcu7t5v0__inv_2
*I *3595:ZN O *D gf180mcu_fd_sc_mcu7t5v0__inv_2
*CAP
1 *3596:I 0.000343094
2 *3595:ZN 0.000343094
3 *3596:I *3597:I 0.000194624
4 *3596:I *3598:I 0.00032464
5 *3596:I *3600:I 0
6 *3594:I *3596:I 2.30549e-05
7 *3595:I *3596:I 0.000157223
*RES
1 *3595:ZN *3596:I 21.42 
*END

*D_NET *435 0.00113364
*CONN
*I *3597:I I *D gf180mcu_fd_sc_mcu7t5v0__inv_2
*I *3596:ZN O *D gf180mcu_fd_sc_mcu7t5v0__inv_2
*CAP
1 *3597:I 8.46409e-05
2 *3596:ZN 8.46409e-05
3 *3597:I *3598:I 0.00032464
4 *3597:I *3599:I 0.000386421
5 *3597:I *3600:I 5.86721e-05
6 *3596:I *3597:I 0.000194624
*RES
1 *3596:ZN *3597:I 10.9 
*END

*D_NET *436 0.000671235
*CONN
*I *3598:I I *D gf180mcu_fd_sc_mcu7t5v0__inv_2
*I *3597:ZN O *D gf180mcu_fd_sc_mcu7t5v0__inv_2
*CAP
1 *3598:I 1.09772e-05
2 *3597:ZN 1.09772e-05
3 *3596:I *3598:I 0.00032464
4 *3597:I *3598:I 0.00032464
*RES
1 *3597:ZN *3598:I 9.836 
*END

*D_NET *437 0.00068523
*CONN
*I *3599:I I *D gf180mcu_fd_sc_mcu7t5v0__inv_2
*I *3598:ZN O *D gf180mcu_fd_sc_mcu7t5v0__inv_2
*CAP
1 *3599:I 0.000108288
2 *3598:ZN 0.000108288
3 *3599:I *3600:I 8.22324e-05
4 *3597:I *3599:I 0.000386421
*RES
1 *3598:ZN *3599:I 10.368 
*END

*D_NET *438 0.00108403
*CONN
*I *3600:I I *D gf180mcu_fd_sc_mcu7t5v0__inv_2
*I *3599:ZN O *D gf180mcu_fd_sc_mcu7t5v0__inv_2
*CAP
1 *3600:I 0.000256468
2 *3599:ZN 0.000256468
3 *3600:I *3601:I 6.05076e-05
4 *3600:I *3602:I 4.50449e-05
5 *3600:I *3604:I 0.00032464
6 *3600:I *3605:I 0
7 *3596:I *3600:I 0
8 *3597:I *3600:I 5.86721e-05
9 *3599:I *3600:I 8.22324e-05
*RES
1 *3599:ZN *3600:I 11.584 
*END

*D_NET *439 0.000459248
*CONN
*I *3601:I I *D gf180mcu_fd_sc_mcu7t5v0__inv_2
*I *3600:ZN O *D gf180mcu_fd_sc_mcu7t5v0__inv_2
*CAP
1 *3601:I 0.000128178
2 *3600:ZN 0.000128178
3 *3601:I *3602:I 3.73627e-05
4 *3601:I *3604:I 0
5 *3601:I *3605:I 0.000105022
6 *3600:I *3601:I 6.05076e-05
*RES
1 *3600:ZN *3601:I 10.216 
*END

*D_NET *440 0.00036834
*CONN
*I *3602:I I *D gf180mcu_fd_sc_mcu7t5v0__inv_2
*I *3601:ZN O *D gf180mcu_fd_sc_mcu7t5v0__inv_2
*CAP
1 *3602:I 0.000142966
2 *3601:ZN 0.000142966
3 *3600:I *3602:I 4.50449e-05
4 *3601:I *3602:I 3.73627e-05
*RES
1 *3601:ZN *3602:I 18.912 
*END

*D_NET *441 0.00039211
*CONN
*I *3603:I I *D gf180mcu_fd_sc_mcu7t5v0__inv_1
*I *3783:ZN O *D gf180mcu_fd_sc_mcu7t5v0__inv_2
*CAP
1 *3603:I 0.000196055
2 *3783:ZN 0.000196055
3 *3603:I *3647:I 0
4 *3603:I *3761:I 0
*RES
1 *3783:ZN *3603:I 10.064 
*END

*D_NET *442 0.000635309
*CONN
*I *3604:I I *D gf180mcu_fd_sc_mcu7t5v0__inv_2
*I *3602:ZN O *D gf180mcu_fd_sc_mcu7t5v0__inv_2
*CAP
1 *3604:I 0.00014624
2 *3602:ZN 0.00014624
3 *3604:I *3605:I 1.81888e-05
4 *3604:I *3606:I 0
5 *3600:I *3604:I 0.00032464
6 *3601:I *3604:I 0
*RES
1 *3602:ZN *3604:I 10.368 
*END

*D_NET *443 0.000767882
*CONN
*I *3605:I I *D gf180mcu_fd_sc_mcu7t5v0__inv_2
*I *3604:ZN O *D gf180mcu_fd_sc_mcu7t5v0__inv_2
*CAP
1 *3605:I 0.00021111
2 *3604:ZN 0.00021111
3 *3605:I *3606:I 0.000222453
4 *3605:I *3607:I 0
5 *3600:I *3605:I 0
6 *3601:I *3605:I 0.000105022
7 *3604:I *3605:I 1.81888e-05
*RES
1 *3604:ZN *3605:I 11.052 
*END

*D_NET *444 0.000756242
*CONN
*I *3606:I I *D gf180mcu_fd_sc_mcu7t5v0__inv_2
*I *3605:ZN O *D gf180mcu_fd_sc_mcu7t5v0__inv_2
*CAP
1 *3606:I 0.000185712
2 *3605:ZN 0.000185712
3 *3606:I *3607:I 0.000157223
4 *3606:I *3610:I 5.14116e-06
5 *3604:I *3606:I 0
6 *3605:I *3606:I 0.000222453
*RES
1 *3605:ZN *3606:I 11.052 
*END

*D_NET *445 0.00089118
*CONN
*I *3607:I I *D gf180mcu_fd_sc_mcu7t5v0__inv_2
*I *3606:ZN O *D gf180mcu_fd_sc_mcu7t5v0__inv_2
*CAP
1 *3607:I 0.000261563
2 *3606:ZN 0.000261563
3 *3607:I *3608:I 6.05076e-05
4 *3607:I *3609:I 3.07734e-05
5 *3607:I *3610:I 0.00011955
6 *3607:I *3611:I 0
7 *3605:I *3607:I 0
8 *3606:I *3607:I 0.000157223
*RES
1 *3606:ZN *3607:I 11.508 
*END

*D_NET *446 0.000526886
*CONN
*I *3608:I I *D gf180mcu_fd_sc_mcu7t5v0__inv_2
*I *3607:ZN O *D gf180mcu_fd_sc_mcu7t5v0__inv_2
*CAP
1 *3608:I 0.000162046
2 *3607:ZN 0.000162046
3 *3608:I *3609:I 8.55327e-05
4 *3608:I *3611:I 5.67536e-05
5 *3607:I *3608:I 6.05076e-05
*RES
1 *3607:ZN *3608:I 10.368 
*END

*D_NET *447 0.000418929
*CONN
*I *3609:I I *D gf180mcu_fd_sc_mcu7t5v0__inv_2
*I *3608:ZN O *D gf180mcu_fd_sc_mcu7t5v0__inv_2
*CAP
1 *3609:I 0.000151311
2 *3608:ZN 0.000151311
3 *3609:I *3610:I 0
4 *3607:I *3609:I 3.07734e-05
5 *3608:I *3609:I 8.55327e-05
*RES
1 *3608:ZN *3609:I 18.912 
*END

*D_NET *448 0.000648172
*CONN
*I *3610:I I *D gf180mcu_fd_sc_mcu7t5v0__inv_2
*I *3609:ZN O *D gf180mcu_fd_sc_mcu7t5v0__inv_2
*CAP
1 *3610:I 0.000261741
2 *3609:ZN 0.000261741
3 *3610:I *3611:I 0
4 *3610:I *3612:I 0
5 *3606:I *3610:I 5.14116e-06
6 *3607:I *3610:I 0.00011955
7 *3609:I *3610:I 0
*RES
1 *3609:ZN *3610:I 19.824 
*END

*D_NET *449 0.000704088
*CONN
*I *3611:I I *D gf180mcu_fd_sc_mcu7t5v0__inv_2
*I *3610:ZN O *D gf180mcu_fd_sc_mcu7t5v0__inv_2
*CAP
1 *3611:I 0.000222699
2 *3610:ZN 0.000222699
3 *3611:I *3612:I 0.000201937
4 *3611:I *3616:I 0
5 *3607:I *3611:I 0
6 *3608:I *3611:I 5.67536e-05
7 *3610:I *3611:I 0
*RES
1 *3610:ZN *3611:I 10.9 
*END

*D_NET *450 0.000880545
*CONN
*I *3612:I I *D gf180mcu_fd_sc_mcu7t5v0__inv_2
*I *3611:ZN O *D gf180mcu_fd_sc_mcu7t5v0__inv_2
*CAP
1 *3612:I 0.000244609
2 *3611:ZN 0.000244609
3 *3612:I *3613:I 9.58397e-05
4 *3612:I *3615:I 5.79329e-05
5 *3612:I *3616:I 3.56172e-05
6 *3610:I *3612:I 0
7 *3611:I *3612:I 0.000201937
*RES
1 *3611:ZN *3612:I 11.432 
*END

*D_NET *451 0.000499388
*CONN
*I *3613:I I *D gf180mcu_fd_sc_mcu7t5v0__inv_2
*I *3612:ZN O *D gf180mcu_fd_sc_mcu7t5v0__inv_2
*CAP
1 *3613:I 3.94538e-05
2 *3612:ZN 3.94538e-05
3 *3613:I *3615:I 0.00032464
4 *3612:I *3613:I 9.58397e-05
*RES
1 *3612:ZN *3613:I 9.836 
*END

*D_NET *452 0.000366789
*CONN
*I *3614:I I *D gf180mcu_fd_sc_mcu7t5v0__inv_1
*I *3603:ZN O *D gf180mcu_fd_sc_mcu7t5v0__inv_1
*CAP
1 *3614:I 5.62675e-05
2 *3603:ZN 5.62675e-05
3 *3614:I *3625:I 0.000222333
4 *3614:I *3636:I 3.19219e-05
5 *3614:I *3691:I 0
*RES
1 *3603:ZN *3614:I 18.684 
*END

*D_NET *453 0.00141829
*CONN
*I *3615:I I *D gf180mcu_fd_sc_mcu7t5v0__inv_1
*I *3613:ZN O *D gf180mcu_fd_sc_mcu7t5v0__inv_2
*CAP
1 *3615:I 0.000235549
2 *3613:ZN 0.000235549
3 *3615:I *3616:I 0.000564615
4 *3612:I *3615:I 5.79329e-05
5 *3613:I *3615:I 0.00032464
*RES
1 *3613:ZN *3615:I 20.508 
*END

*D_NET *454 0.00144145
*CONN
*I *3616:I I *D gf180mcu_fd_sc_mcu7t5v0__inv_1
*I *3615:ZN O *D gf180mcu_fd_sc_mcu7t5v0__inv_1
*CAP
1 *3616:I 0.000251048
2 *3615:ZN 0.000251048
3 *3616:I *3617:I 0.00032464
4 *3616:I *3618:I 1.44832e-05
5 *3616:I *3623:I 0
6 *3611:I *3616:I 0
7 *3612:I *3616:I 3.56172e-05
8 *3615:I *3616:I 0.000564615
*RES
1 *3615:ZN *3616:I 11.736 
*END

*D_NET *455 0.000692939
*CONN
*I *3617:I I *D gf180mcu_fd_sc_mcu7t5v0__inv_1
*I *3616:ZN O *D gf180mcu_fd_sc_mcu7t5v0__inv_1
*CAP
1 *3617:I 0.000154613
2 *3616:ZN 0.000154613
3 *3617:I *3618:I 5.48085e-05
4 *3617:I *3619:I 4.26315e-06
5 *3616:I *3617:I 0.00032464
*RES
1 *3616:ZN *3617:I 10.52 
*END

*D_NET *456 0.000307879
*CONN
*I *3618:I I *D gf180mcu_fd_sc_mcu7t5v0__clkinv_1
*I *3617:ZN O *D gf180mcu_fd_sc_mcu7t5v0__inv_1
*CAP
1 *3618:I 7.22048e-05
2 *3617:ZN 7.22048e-05
3 *3618:I *3619:I 9.41778e-05
4 *3616:I *3618:I 1.44832e-05
5 *3617:I *3618:I 5.48085e-05
*RES
1 *3617:ZN *3618:I 9.684 
*END

*D_NET *457 0.000837909
*CONN
*I *3619:I I *D gf180mcu_fd_sc_mcu7t5v0__inv_2
*I *3618:ZN O *D gf180mcu_fd_sc_mcu7t5v0__clkinv_1
*CAP
1 *3619:I 0.000369734
2 *3618:ZN 0.000369734
3 *3619:I *3622:I 0
4 *3617:I *3619:I 4.26315e-06
5 *3618:I *3619:I 9.41778e-05
*RES
1 *3618:ZN *3619:I 11.128 
*END

*D_NET *458 0.00035987
*CONN
*I *3620:I I *D gf180mcu_fd_sc_mcu7t5v0__inv_2
*I *3619:ZN O *D gf180mcu_fd_sc_mcu7t5v0__inv_2
*CAP
1 *3620:I 0.000143185
2 *3619:ZN 0.000143185
3 *3620:I *3621:I 5.29084e-05
4 *3620:I *3623:I 2.05921e-05
*RES
1 *3619:ZN *3620:I 9.988 
*END

*D_NET *459 0.00101093
*CONN
*I *3621:I I *D gf180mcu_fd_sc_mcu7t5v0__inv_1
*I *3620:ZN O *D gf180mcu_fd_sc_mcu7t5v0__inv_2
*CAP
1 *3621:I 0.000256855
2 *3620:ZN 0.000256855
3 *3621:I *3622:I 0.000317494
4 *3621:I *3624:I 0.000126817
5 *3620:I *3621:I 5.29084e-05
*RES
1 *3620:ZN *3621:I 11.432 
*END

*D_NET *460 0.00107488
*CONN
*I *3622:I I *D gf180mcu_fd_sc_mcu7t5v0__inv_1
*I *3621:ZN O *D gf180mcu_fd_sc_mcu7t5v0__inv_1
*CAP
1 *3622:I 0.000378691
2 *3621:ZN 0.000378691
3 *3622:I *3623:I 0
4 oINTERRUPT_SL *3622:I 0
5 *3619:I *3622:I 0
6 *3621:I *3622:I 0.000317494
*RES
1 *3621:ZN *3622:I 20.584 
*END

*D_NET *461 0.00109494
*CONN
*I *3623:I I *D gf180mcu_fd_sc_mcu7t5v0__inv_1
*I *3622:ZN O *D gf180mcu_fd_sc_mcu7t5v0__inv_1
*CAP
1 *3623:I 0.000537173
2 *3622:ZN 0.000537173
3 *3616:I *3623:I 0
4 *3620:I *3623:I 2.05921e-05
5 *3622:I *3623:I 0
*RES
1 *3622:ZN *3623:I 21.344 
*END

*D_NET *462 0.00115259
*CONN
*I *3624:I I *D gf180mcu_fd_sc_mcu7t5v0__inv_1
*I *3623:ZN O *D gf180mcu_fd_sc_mcu7t5v0__inv_1
*CAP
1 *3624:I 0.000317548
2 *3623:ZN 0.000317548
3 *3624:I *3626:I 0.000351372
4 *3624:I *3627:I 1.5015e-05
5 *3624:I *3628:I 2.42954e-05
6 *3621:I *3624:I 0.000126817
*RES
1 *3623:ZN *3624:I 12.192 
*END

*D_NET *463 0.000822534
*CONN
*I *3625:I I *D gf180mcu_fd_sc_mcu7t5v0__inv_1
*I *3614:ZN O *D gf180mcu_fd_sc_mcu7t5v0__inv_1
*CAP
1 *3625:I 6.64565e-05
2 *3614:ZN 6.64565e-05
3 *3625:I *3636:I 0.000467288
4 *3625:I *3680:I 0
5 *3614:I *3625:I 0.000222333
*RES
1 *3614:ZN *3625:I 19.292 
*END

*D_NET *464 0.00062302
*CONN
*I *3626:I I *D gf180mcu_fd_sc_mcu7t5v0__inv_1
*I *3624:ZN O *D gf180mcu_fd_sc_mcu7t5v0__inv_1
*CAP
1 *3626:I 0.000108981
2 *3624:ZN 0.000108981
3 *3626:I *3627:I 1.27895e-05
4 *3626:I *3628:I 4.08958e-05
5 *3626:I *3629:I 0
6 *3624:I *3626:I 0.000351372
*RES
1 *3624:ZN *3626:I 10.292 
*END

*D_NET *465 0.000176978
*CONN
*I *3627:I I *D gf180mcu_fd_sc_mcu7t5v0__inv_1
*I *3626:ZN O *D gf180mcu_fd_sc_mcu7t5v0__inv_1
*CAP
1 *3627:I 7.4587e-05
2 *3626:ZN 7.4587e-05
3 *3624:I *3627:I 1.5015e-05
4 *3626:I *3627:I 1.27895e-05
*RES
1 *3626:ZN *3627:I 9.532 
*END

*D_NET *466 0.000669901
*CONN
*I *3628:I I *D gf180mcu_fd_sc_mcu7t5v0__inv_1
*I *3627:ZN O *D gf180mcu_fd_sc_mcu7t5v0__inv_1
*CAP
1 *3628:I 0.000281885
2 *3627:ZN 0.000281885
3 *3628:I *3629:I 4.09409e-05
4 *3624:I *3628:I 2.42954e-05
5 *3626:I *3628:I 4.08958e-05
*RES
1 *3627:ZN *3628:I 19.976 
*END

*D_NET *467 0.000549176
*CONN
*I *3629:I I *D gf180mcu_fd_sc_mcu7t5v0__inv_1
*I *3628:ZN O *D gf180mcu_fd_sc_mcu7t5v0__inv_1
*CAP
1 *3629:I 0.00024346
2 *3628:ZN 0.00024346
3 *3629:I *3630:I 2.13158e-05
4 *3626:I *3629:I 0
5 *3628:I *3629:I 4.09409e-05
*RES
1 *3628:ZN *3629:I 10.444 
*END

*D_NET *468 0.000183903
*CONN
*I *3630:I I *D gf180mcu_fd_sc_mcu7t5v0__inv_1
*I *3629:ZN O *D gf180mcu_fd_sc_mcu7t5v0__inv_1
*CAP
1 *3630:I 8.12935e-05
2 *3629:ZN 8.12935e-05
3 *3629:I *3630:I 2.13158e-05
*RES
1 *3629:ZN *3630:I 9.532 
*END

*D_NET *469 0.000153083
*CONN
*I *3631:I I *D gf180mcu_fd_sc_mcu7t5v0__inv_1
*I *3630:ZN O *D gf180mcu_fd_sc_mcu7t5v0__inv_1
*CAP
1 *3631:I 7.65413e-05
2 *3630:ZN 7.65413e-05
*RES
1 *3630:ZN *3631:I 9.532 
*END

*D_NET *470 0.000746293
*CONN
*I *3632:I I *D gf180mcu_fd_sc_mcu7t5v0__inv_1
*I *3631:ZN O *D gf180mcu_fd_sc_mcu7t5v0__inv_1
*CAP
1 *3632:I 0.00032948
2 *3631:ZN 0.00032948
3 *3632:I *3633:I 8.7332e-05
*RES
1 *3631:ZN *3632:I 19.976 
*END

*D_NET *471 0.000522466
*CONN
*I *3633:I I *D gf180mcu_fd_sc_mcu7t5v0__inv_1
*I *3632:ZN O *D gf180mcu_fd_sc_mcu7t5v0__inv_1
*CAP
1 *3633:I 0.000217567
2 *3632:ZN 0.000217567
3 *3633:I *3634:I 0
4 *3632:I *3633:I 8.7332e-05
*RES
1 *3632:ZN *3633:I 10.52 
*END

*D_NET *472 0.000153284
*CONN
*I *3634:I I *D gf180mcu_fd_sc_mcu7t5v0__inv_1
*I *3633:ZN O *D gf180mcu_fd_sc_mcu7t5v0__inv_1
*CAP
1 *3634:I 7.53565e-05
2 *3633:ZN 7.53565e-05
3 oINTERRUPT_OE *3634:I 2.57058e-06
4 *3633:I *3634:I 0
*RES
1 *3633:ZN *3634:I 9.532 
*END

*D_NET *473 0.000154087
*CONN
*I *3635:I I *D gf180mcu_fd_sc_mcu7t5v0__inv_1
*I *3634:ZN O *D gf180mcu_fd_sc_mcu7t5v0__inv_1
*CAP
1 *3635:I 7.06172e-05
2 *3634:ZN 7.06172e-05
3 oINTERRUPT_OE *3635:I 1.28529e-05
*RES
1 *3634:ZN *3635:I 9.532 
*END

*D_NET *474 0.00134215
*CONN
*I *3636:I I *D gf180mcu_fd_sc_mcu7t5v0__inv_1
*I *3625:ZN O *D gf180mcu_fd_sc_mcu7t5v0__inv_1
*CAP
1 *3636:I 0.000393547
2 *3625:ZN 0.000393547
3 *3636:I *3647:I 3.23347e-05
4 *3636:I *3691:I 0
5 *3636:I *3783:I 2.35105e-05
6 *3614:I *3636:I 3.19219e-05
7 *3625:I *3636:I 0.000467288
*RES
1 *3625:ZN *3636:I 21.04 
*END

*D_NET *475 0.000153083
*CONN
*I *3637:I I *D gf180mcu_fd_sc_mcu7t5v0__inv_1
*I *3635:ZN O *D gf180mcu_fd_sc_mcu7t5v0__inv_1
*CAP
1 *3637:I 7.65413e-05
2 *3635:ZN 7.65413e-05
*RES
1 *3635:ZN *3637:I 9.532 
*END

*D_NET *476 0.000220231
*CONN
*I *3638:I I *D gf180mcu_fd_sc_mcu7t5v0__inv_1
*I *3637:ZN O *D gf180mcu_fd_sc_mcu7t5v0__inv_1
*CAP
1 *3638:I 0.000110116
2 *3637:ZN 0.000110116
*RES
1 *3637:ZN *3638:I 18.684 
*END

*D_NET *477 0.000428453
*CONN
*I *3639:I I *D gf180mcu_fd_sc_mcu7t5v0__inv_1
*I *3638:ZN O *D gf180mcu_fd_sc_mcu7t5v0__inv_1
*CAP
1 *3639:I 0.000201154
2 *3638:ZN 0.000201154
3 *3639:I *3640:I 1.27895e-05
4 *3639:I *3641:I 1.33547e-05
5 *3639:I *3642:I 0
*RES
1 *3638:ZN *3639:I 10.14 
*END

*D_NET *478 0.000171575
*CONN
*I *3640:I I *D gf180mcu_fd_sc_mcu7t5v0__inv_1
*I *3639:ZN O *D gf180mcu_fd_sc_mcu7t5v0__inv_1
*CAP
1 *3640:I 7.93926e-05
2 *3639:ZN 7.93926e-05
3 *3639:I *3640:I 1.27895e-05
*RES
1 *3639:ZN *3640:I 9.532 
*END

*D_NET *479 0.000849066
*CONN
*I *3641:I I *D gf180mcu_fd_sc_mcu7t5v0__inv_1
*I *3640:ZN O *D gf180mcu_fd_sc_mcu7t5v0__inv_1
*CAP
1 *3641:I 0.000225075
2 *3640:ZN 0.000225075
3 *3641:I *3642:I 0.00038556
4 *3641:I *3643:I 0
5 *3639:I *3641:I 1.33547e-05
*RES
1 *3640:ZN *3641:I 11.204 
*END

*D_NET *480 0.000624706
*CONN
*I *3642:I I *D gf180mcu_fd_sc_mcu7t5v0__inv_1
*I *3641:ZN O *D gf180mcu_fd_sc_mcu7t5v0__inv_1
*CAP
1 *3642:I 0.000105164
2 *3641:ZN 0.000105164
3 *3642:I *3643:I 2.88187e-05
4 *3639:I *3642:I 0
5 *3641:I *3642:I 0.00038556
*RES
1 *3641:ZN *3642:I 10.216 
*END

*D_NET *481 0.000156415
*CONN
*I *3643:I I *D gf180mcu_fd_sc_mcu7t5v0__inv_1
*I *3642:ZN O *D gf180mcu_fd_sc_mcu7t5v0__inv_1
*CAP
1 *3643:I 6.37983e-05
2 *3642:ZN 6.37983e-05
3 *3641:I *3643:I 0
4 *3642:I *3643:I 2.88187e-05
*RES
1 *3642:ZN *3643:I 9.532 
*END

*D_NET *482 0.000153083
*CONN
*I *3644:I I *D gf180mcu_fd_sc_mcu7t5v0__inv_1
*I *3643:ZN O *D gf180mcu_fd_sc_mcu7t5v0__inv_1
*CAP
1 *3644:I 7.65413e-05
2 *3643:ZN 7.65413e-05
*RES
1 *3643:ZN *3644:I 9.532 
*END

*D_NET *483 0.000194491
*CONN
*I *3645:I I *D gf180mcu_fd_sc_mcu7t5v0__inv_1
*I *3644:ZN O *D gf180mcu_fd_sc_mcu7t5v0__inv_1
*CAP
1 *3645:I 9.72457e-05
2 *3644:ZN 9.72457e-05
*RES
1 *3644:ZN *3645:I 18.684 
*END

*D_NET *484 0.000447681
*CONN
*I *3646:I I *D gf180mcu_fd_sc_mcu7t5v0__inv_1
*I *3645:ZN O *D gf180mcu_fd_sc_mcu7t5v0__inv_1
*CAP
1 *3646:I 0.000209431
2 *3645:ZN 0.000209431
3 *3646:I *3648:I 2.88187e-05
*RES
1 *3645:ZN *3646:I 10.368 
*END

*D_NET *485 0.000430467
*CONN
*I *3647:I I *D gf180mcu_fd_sc_mcu7t5v0__inv_1
*I *3636:ZN O *D gf180mcu_fd_sc_mcu7t5v0__inv_1
*CAP
1 *3647:I 0.000184657
2 *3636:ZN 0.000184657
3 *3647:I *3658:I 2.88187e-05
4 *3647:I *3669:I 0
5 *3603:I *3647:I 0
6 *3636:I *3647:I 3.23347e-05
*RES
1 *3636:ZN *3647:I 10.216 
*END

*D_NET *486 0.000156415
*CONN
*I *3648:I I *D gf180mcu_fd_sc_mcu7t5v0__inv_1
*I *3646:ZN O *D gf180mcu_fd_sc_mcu7t5v0__inv_1
*CAP
1 *3648:I 6.37983e-05
2 *3646:ZN 6.37983e-05
3 *3646:I *3648:I 2.88187e-05
*RES
1 *3646:ZN *3648:I 9.532 
*END

*D_NET *487 0.000153083
*CONN
*I *3649:I I *D gf180mcu_fd_sc_mcu7t5v0__inv_2
*I *3648:ZN O *D gf180mcu_fd_sc_mcu7t5v0__inv_1
*CAP
1 *3649:I 7.65413e-05
2 *3648:ZN 7.65413e-05
*RES
1 *3648:ZN *3649:I 9.532 
*END

*D_NET *488 0.00046163
*CONN
*I *3650:I I *D gf180mcu_fd_sc_mcu7t5v0__inv_2
*I *3649:ZN O *D gf180mcu_fd_sc_mcu7t5v0__inv_2
*CAP
1 *3650:I 0.000194287
2 *3649:ZN 0.000194287
3 *3650:I *3651:I 6.31678e-05
4 *3650:I *3653:I 9.88736e-06
*RES
1 *3649:ZN *3650:I 10.216 
*END

*D_NET *489 0.000873562
*CONN
*I *3651:I I *D gf180mcu_fd_sc_mcu7t5v0__inv_2
*I *3650:ZN O *D gf180mcu_fd_sc_mcu7t5v0__inv_2
*CAP
1 *3651:I 0.000271981
2 *3650:ZN 0.000271981
3 *3651:I *3652:I 0.000266432
4 *3650:I *3651:I 6.31678e-05
*RES
1 *3650:ZN *3651:I 19.976 
*END

*D_NET *490 0.00137631
*CONN
*I *3652:I I *D gf180mcu_fd_sc_mcu7t5v0__inv_2
*I *3651:ZN O *D gf180mcu_fd_sc_mcu7t5v0__inv_2
*CAP
1 *3652:I 0.000455381
2 *3651:ZN 0.000455381
3 *3652:I *3653:I 0.000153575
4 *3652:I *3655:I 3.73627e-05
5 *3652:I *3657:I 8.18279e-06
6 *3651:I *3652:I 0.000266432
*RES
1 *3651:ZN *3652:I 21.344 
*END

*D_NET *491 0.00123739
*CONN
*I *3653:I I *D gf180mcu_fd_sc_mcu7t5v0__inv_2
*I *3652:ZN O *D gf180mcu_fd_sc_mcu7t5v0__inv_2
*CAP
1 *3653:I 0.000263975
2 *3652:ZN 0.000263975
3 *3653:I *3654:I 0.000189639
4 *3653:I *3655:I 0.000327635
5 *3653:I *3657:I 2.8701e-05
6 *3650:I *3653:I 9.88736e-06
7 *3652:I *3653:I 0.000153575
*RES
1 *3652:ZN *3653:I 20.432 
*END

*D_NET *492 0.00052644
*CONN
*I *3654:I I *D gf180mcu_fd_sc_mcu7t5v0__inv_1
*I *3653:ZN O *D gf180mcu_fd_sc_mcu7t5v0__inv_2
*CAP
1 *3654:I 0.000168401
2 *3653:ZN 0.000168401
3 *3654:I *3655:I 0
4 *3653:I *3654:I 0.000189639
*RES
1 *3653:ZN *3654:I 10.216 
*END

*D_NET *493 0.000894372
*CONN
*I *3655:I I *D gf180mcu_fd_sc_mcu7t5v0__inv_1
*I *3654:ZN O *D gf180mcu_fd_sc_mcu7t5v0__inv_1
*CAP
1 *3655:I 0.000239965
2 *3654:ZN 0.000239965
3 *3655:I *3657:I 4.94436e-05
4 *3655:I *3659:I 0
5 *3652:I *3655:I 3.73627e-05
6 *3653:I *3655:I 0.000327635
7 *3654:I *3655:I 0
*RES
1 *3654:ZN *3655:I 19.976 
*END

*D_NET *494 0.000153083
*CONN
*I *3656:I I *D gf180mcu_fd_sc_mcu7t5v0__inv_1
*I *3655:ZN O *D gf180mcu_fd_sc_mcu7t5v0__inv_1
*CAP
1 *3656:I 7.65413e-05
2 *3655:ZN 7.65413e-05
*RES
1 *3655:ZN *3656:I 9.532 
*END

*D_NET *495 0.00062095
*CONN
*I *3657:I I *D gf180mcu_fd_sc_mcu7t5v0__inv_1
*I *3656:ZN O *D gf180mcu_fd_sc_mcu7t5v0__inv_1
*CAP
1 *3657:I 0.00024792
2 *3656:ZN 0.00024792
3 *3657:I *3659:I 3.87828e-05
4 *3652:I *3657:I 8.18279e-06
5 *3653:I *3657:I 2.8701e-05
6 *3655:I *3657:I 4.94436e-05
*RES
1 *3656:ZN *3657:I 19.52 
*END

*D_NET *496 0.00023798
*CONN
*I *3658:I I *D gf180mcu_fd_sc_mcu7t5v0__inv_1
*I *3647:ZN O *D gf180mcu_fd_sc_mcu7t5v0__inv_1
*CAP
1 *3658:I 5.20281e-05
2 *3647:ZN 5.20281e-05
3 *3658:I *3669:I 0.000105105
4 *3647:I *3658:I 2.88187e-05
*RES
1 *3647:ZN *3658:I 9.684 
*END

*D_NET *497 0.000250709
*CONN
*I *3659:I I *D gf180mcu_fd_sc_mcu7t5v0__inv_1
*I *3657:ZN O *D gf180mcu_fd_sc_mcu7t5v0__inv_1
*CAP
1 *3659:I 0.000105963
2 *3657:ZN 0.000105963
3 *3655:I *3659:I 0
4 *3657:I *3659:I 3.87828e-05
*RES
1 *3657:ZN *3659:I 9.684 
*END

*D_NET *498 0.000634333
*CONN
*I *3660:I I *D gf180mcu_fd_sc_mcu7t5v0__inv_1
*I *3659:ZN O *D gf180mcu_fd_sc_mcu7t5v0__inv_1
*CAP
1 *3660:I 0.000154846
2 *3659:ZN 0.000154846
3 *3660:I *3663:I 0.00032464
*RES
1 *3659:ZN *3660:I 10.368 
*END

*D_NET *499 0.000800804
*CONN
*I *3661:I I *D gf180mcu_fd_sc_mcu7t5v0__inv_1
*I *3660:ZN O *D gf180mcu_fd_sc_mcu7t5v0__inv_1
*CAP
1 *3661:I 0.00034313
2 *3660:ZN 0.00034313
3 *3661:I *3665:I 1.91917e-06
4 *3661:I *3666:I 4.57808e-05
5 *3661:I *3667:I 6.68441e-05
*RES
1 *3660:ZN *3661:I 20.128 
*END

*D_NET *500 0.000491769
*CONN
*I *3662:I I *D gf180mcu_fd_sc_mcu7t5v0__inv_1
*I *3661:ZN O *D gf180mcu_fd_sc_mcu7t5v0__inv_1
*CAP
1 *3662:I 0.000243314
2 *3661:ZN 0.000243314
3 *3662:I *3663:I 0
4 *3662:I *3664:I 5.14116e-06
*RES
1 *3661:ZN *3662:I 10.672 
*END

*D_NET *501 0.000637666
*CONN
*I *3663:I I *D gf180mcu_fd_sc_mcu7t5v0__inv_1
*I *3662:ZN O *D gf180mcu_fd_sc_mcu7t5v0__inv_1
*CAP
1 *3663:I 0.000142103
2 *3662:ZN 0.000142103
3 *3663:I *3664:I 2.88187e-05
4 *3663:I *3665:I 0
5 *3660:I *3663:I 0.00032464
6 *3662:I *3663:I 0
*RES
1 *3662:ZN *3663:I 10.368 
*END

*D_NET *502 0.000217063
*CONN
*I *3664:I I *D gf180mcu_fd_sc_mcu7t5v0__inv_1
*I *3663:ZN O *D gf180mcu_fd_sc_mcu7t5v0__inv_1
*CAP
1 *3664:I 5.56495e-05
2 *3663:ZN 5.56495e-05
3 *3664:I *3665:I 7.18046e-05
4 *3662:I *3664:I 5.14116e-06
5 *3663:I *3664:I 2.88187e-05
*RES
1 *3663:ZN *3664:I 9.684 
*END

*D_NET *503 0.00054994
*CONN
*I *3665:I I *D gf180mcu_fd_sc_mcu7t5v0__inv_1
*I *3664:ZN O *D gf180mcu_fd_sc_mcu7t5v0__inv_1
*CAP
1 *3665:I 0.000238108
2 *3664:ZN 0.000238108
3 *3661:I *3665:I 1.91917e-06
4 *3663:I *3665:I 0
5 *3664:I *3665:I 7.18046e-05
*RES
1 *3664:ZN *3665:I 10.444 
*END

*D_NET *504 0.000586358
*CONN
*I *3666:I I *D gf180mcu_fd_sc_mcu7t5v0__inv_1
*I *3665:ZN O *D gf180mcu_fd_sc_mcu7t5v0__inv_1
*CAP
1 *3666:I 7.67378e-05
2 *3665:ZN 7.67378e-05
3 *3666:I *3667:I 0.000285856
4 *3666:I *3668:I 0.000101246
5 *3666:I *3670:I 0
6 *3661:I *3666:I 4.57808e-05
*RES
1 *3665:ZN *3666:I 19.292 
*END

*D_NET *505 0.000400272
*CONN
*I *3667:I I *D gf180mcu_fd_sc_mcu7t5v0__inv_1
*I *3666:ZN O *D gf180mcu_fd_sc_mcu7t5v0__inv_1
*CAP
1 *3667:I 2.37858e-05
2 *3666:ZN 2.37858e-05
3 *3661:I *3667:I 6.68441e-05
4 *3666:I *3667:I 0.000285856
*RES
1 *3666:ZN *3667:I 18.684 
*END

*D_NET *506 0.00063545
*CONN
*I *3668:I I *D gf180mcu_fd_sc_mcu7t5v0__inv_1
*I *3667:ZN O *D gf180mcu_fd_sc_mcu7t5v0__inv_1
*CAP
1 *3668:I 0.000237486
2 *3667:ZN 0.000237486
3 *3668:I *3670:I 5.60719e-05
4 *3668:I *3672:I 3.16049e-06
5 *3666:I *3668:I 0.000101246
*RES
1 *3667:ZN *3668:I 19.748 
*END

*D_NET *507 0.000676337
*CONN
*I *3669:I I *D gf180mcu_fd_sc_mcu7t5v0__inv_1
*I *3658:ZN O *D gf180mcu_fd_sc_mcu7t5v0__inv_1
*CAP
1 *3669:I 0.000285616
2 *3658:ZN 0.000285616
3 *3669:I *3694:I 0
4 *3647:I *3669:I 0
5 *3658:I *3669:I 0.000105105
*RES
1 *3658:ZN *3669:I 10.976 
*END

*D_NET *508 0.000526957
*CONN
*I *3670:I I *D gf180mcu_fd_sc_mcu7t5v0__inv_1
*I *3668:ZN O *D gf180mcu_fd_sc_mcu7t5v0__inv_1
*CAP
1 *3670:I 0.000167685
2 *3668:ZN 0.000167685
3 *3670:I *3672:I 0.000111727
4 *3670:I *3673:I 2.37884e-05
5 *3666:I *3670:I 0
6 *3668:I *3670:I 5.60719e-05
*RES
1 *3668:ZN *3670:I 19.292 
*END

*D_NET *509 0.000153083
*CONN
*I *3671:I I *D gf180mcu_fd_sc_mcu7t5v0__inv_1
*I *3670:ZN O *D gf180mcu_fd_sc_mcu7t5v0__inv_1
*CAP
1 *3671:I 7.65413e-05
2 *3670:ZN 7.65413e-05
3 *3671:I *3676:I 0
*RES
1 *3670:ZN *3671:I 9.532 
*END

*D_NET *510 0.00058077
*CONN
*I *3672:I I *D gf180mcu_fd_sc_mcu7t5v0__inv_1
*I *3671:ZN O *D gf180mcu_fd_sc_mcu7t5v0__inv_1
*CAP
1 *3672:I 0.000196702
2 *3671:ZN 0.000196702
3 *3672:I *3673:I 7.24795e-05
4 *3668:I *3672:I 3.16049e-06
5 *3670:I *3672:I 0.000111727
*RES
1 *3671:ZN *3672:I 19.52 
*END

*D_NET *511 0.000377674
*CONN
*I *3673:I I *D gf180mcu_fd_sc_mcu7t5v0__clkinv_1
*I *3672:ZN O *D gf180mcu_fd_sc_mcu7t5v0__inv_1
*CAP
1 *3673:I 9.14116e-05
2 *3672:ZN 9.14116e-05
3 *3673:I *3674:I 9.85832e-05
4 *3670:I *3673:I 2.37884e-05
5 *3672:I *3673:I 7.24795e-05
*RES
1 *3672:ZN *3673:I 19.292 
*END

*D_NET *512 0.000865481
*CONN
*I *3674:I I *D gf180mcu_fd_sc_mcu7t5v0__inv_1
*I *3673:ZN O *D gf180mcu_fd_sc_mcu7t5v0__clkinv_1
*CAP
1 *3674:I 0.000373773
2 *3673:ZN 0.000373773
3 *3674:I *3675:I 1.93526e-05
4 *3674:I *3676:I 0
5 *3673:I *3674:I 9.85832e-05
*RES
1 *3673:ZN *3674:I 20.204 
*END

*D_NET *513 0.000469946
*CONN
*I *3675:I I *D gf180mcu_fd_sc_mcu7t5v0__inv_1
*I *3674:ZN O *D gf180mcu_fd_sc_mcu7t5v0__inv_1
*CAP
1 *3675:I 0.000164843
2 *3674:ZN 0.000164843
3 *3675:I *3676:I 9.20883e-05
4 *3675:I *3678:I 2.88187e-05
5 *3674:I *3675:I 1.93526e-05
*RES
1 *3674:ZN *3675:I 10.216 
*END

*D_NET *514 0.000701349
*CONN
*I *3676:I I *D gf180mcu_fd_sc_mcu7t5v0__inv_1
*I *3675:ZN O *D gf180mcu_fd_sc_mcu7t5v0__inv_1
*CAP
1 *3676:I 0.000292579
2 *3675:ZN 0.000292579
3 *3676:I *3677:I 2.41034e-05
4 *3671:I *3676:I 0
5 *3674:I *3676:I 0
6 *3675:I *3676:I 9.20883e-05
*RES
1 *3675:ZN *3676:I 10.748 
*END

*D_NET *515 0.000202329
*CONN
*I *3677:I I *D gf180mcu_fd_sc_mcu7t5v0__inv_1
*I *3676:ZN O *D gf180mcu_fd_sc_mcu7t5v0__inv_1
*CAP
1 *3677:I 8.78277e-05
2 *3676:ZN 8.78277e-05
3 *3677:I *3679:I 2.57058e-06
4 *3677:I *3681:I 0
5 *3676:I *3677:I 2.41034e-05
*RES
1 *3676:ZN *3677:I 9.532 
*END

*D_NET *516 0.000474721
*CONN
*I *3678:I I *D gf180mcu_fd_sc_mcu7t5v0__inv_1
*I *3677:ZN O *D gf180mcu_fd_sc_mcu7t5v0__inv_1
*CAP
1 *3678:I 0.000207934
2 *3677:ZN 0.000207934
3 *3678:I *3679:I 3.00343e-05
4 *3675:I *3678:I 2.88187e-05
*RES
1 *3677:ZN *3678:I 10.292 
*END

*D_NET *517 0.000193363
*CONN
*I *3679:I I *D gf180mcu_fd_sc_mcu7t5v0__inv_1
*I *3678:ZN O *D gf180mcu_fd_sc_mcu7t5v0__inv_1
*CAP
1 *3679:I 8.03789e-05
2 *3678:ZN 8.03789e-05
3 *3677:I *3679:I 2.57058e-06
4 *3678:I *3679:I 3.00343e-05
*RES
1 *3678:ZN *3679:I 9.532 
*END

*D_NET *518 0.000348387
*CONN
*I *3680:I I *D gf180mcu_fd_sc_mcu7t5v0__inv_1
*I *3669:ZN O *D gf180mcu_fd_sc_mcu7t5v0__inv_1
*CAP
1 *3680:I 5.37652e-05
2 *3669:ZN 5.37652e-05
3 *3680:I *3691:I 0.000222333
4 *3680:I *3698:I 1.85245e-05
5 *3625:I *3680:I 0
*RES
1 *3669:ZN *3680:I 18.684 
*END

*D_NET *519 0.000213032
*CONN
*I *3681:I I *D gf180mcu_fd_sc_mcu7t5v0__inv_1
*I *3679:ZN O *D gf180mcu_fd_sc_mcu7t5v0__inv_1
*CAP
1 *3681:I 8.39935e-05
2 *3679:ZN 8.39935e-05
3 *3681:I *3682:I 4.50449e-05
4 *3681:I *3683:I 0
5 *3677:I *3681:I 0
*RES
1 *3679:ZN *3681:I 9.684 
*END

*D_NET *520 0.00037375
*CONN
*I *3682:I I *D gf180mcu_fd_sc_mcu7t5v0__inv_1
*I *3681:ZN O *D gf180mcu_fd_sc_mcu7t5v0__inv_1
*CAP
1 *3682:I 0.000161471
2 *3681:ZN 0.000161471
3 *3682:I *3683:I 5.76373e-06
4 *3682:I *3684:I 0
5 *3681:I *3682:I 4.50449e-05
*RES
1 *3681:ZN *3682:I 10.064 
*END

*D_NET *521 0.000214196
*CONN
*I *3683:I I *D gf180mcu_fd_sc_mcu7t5v0__inv_1
*I *3682:ZN O *D gf180mcu_fd_sc_mcu7t5v0__inv_1
*CAP
1 *3683:I 6.70287e-05
2 *3682:ZN 6.70287e-05
3 *3683:I *3684:I 7.18046e-05
4 *3683:I *3686:I 2.57058e-06
5 *3681:I *3683:I 0
6 *3682:I *3683:I 5.76373e-06
*RES
1 *3682:ZN *3683:I 9.684 
*END

*D_NET *522 0.000533608
*CONN
*I *3684:I I *D gf180mcu_fd_sc_mcu7t5v0__inv_1
*I *3683:ZN O *D gf180mcu_fd_sc_mcu7t5v0__inv_1
*CAP
1 *3684:I 0.000209877
2 *3683:ZN 0.000209877
3 *3684:I *3685:I 4.20481e-05
4 *3682:I *3684:I 0
5 *3683:I *3684:I 7.18046e-05
*RES
1 *3683:ZN *3684:I 10.444 
*END

*D_NET *523 0.000200316
*CONN
*I *3685:I I *D gf180mcu_fd_sc_mcu7t5v0__inv_1
*I *3684:ZN O *D gf180mcu_fd_sc_mcu7t5v0__inv_1
*CAP
1 *3685:I 7.91338e-05
2 *3684:ZN 7.91338e-05
3 *3684:I *3685:I 4.20481e-05
*RES
1 *3684:ZN *3685:I 9.532 
*END

*D_NET *524 0.000153284
*CONN
*I *3686:I I *D gf180mcu_fd_sc_mcu7t5v0__inv_1
*I *3685:ZN O *D gf180mcu_fd_sc_mcu7t5v0__inv_1
*CAP
1 *3686:I 7.53565e-05
2 *3685:ZN 7.53565e-05
3 *3683:I *3686:I 2.57058e-06
*RES
1 *3685:ZN *3686:I 9.532 
*END

*D_NET *525 0.000192635
*CONN
*I *3687:I I *D gf180mcu_fd_sc_mcu7t5v0__inv_1
*I *3686:ZN O *D gf180mcu_fd_sc_mcu7t5v0__inv_1
*CAP
1 *3687:I 9.63176e-05
2 *3686:ZN 9.63176e-05
*RES
1 *3686:ZN *3687:I 18.684 
*END

*D_NET *526 0.000357539
*CONN
*I *3688:I I *D gf180mcu_fd_sc_mcu7t5v0__inv_1
*I *3687:ZN O *D gf180mcu_fd_sc_mcu7t5v0__inv_1
*CAP
1 *3688:I 0.000175888
2 *3687:ZN 0.000175888
3 *3688:I *3689:I 5.76373e-06
4 *3688:I *3690:I 0
5 *325:89 *3688:I 0
*RES
1 *3687:ZN *3688:I 10.064 
*END

*D_NET *527 0.000213995
*CONN
*I *3689:I I *D gf180mcu_fd_sc_mcu7t5v0__inv_1
*I *3688:ZN O *D gf180mcu_fd_sc_mcu7t5v0__inv_1
*CAP
1 *3689:I 6.82135e-05
2 *3688:ZN 6.82135e-05
3 *3689:I *3690:I 7.18046e-05
4 *3689:I *3693:I 0
5 *3688:I *3689:I 5.76373e-06
*RES
1 *3688:ZN *3689:I 9.684 
*END

*D_NET *528 0.000534572
*CONN
*I *3690:I I *D gf180mcu_fd_sc_mcu7t5v0__inv_1
*I *3689:ZN O *D gf180mcu_fd_sc_mcu7t5v0__inv_1
*CAP
1 *3690:I 0.000203682
2 *3689:ZN 0.000203682
3 *3690:I *3692:I 4.20481e-05
4 *3688:I *3690:I 0
5 *3689:I *3690:I 7.18046e-05
6 *325:89 *3690:I 1.33547e-05
*RES
1 *3689:ZN *3690:I 10.444 
*END

*D_NET *529 0.000702852
*CONN
*I *3691:I I *D gf180mcu_fd_sc_mcu7t5v0__inv_1
*I *3680:ZN O *D gf180mcu_fd_sc_mcu7t5v0__inv_1
*CAP
1 *3691:I 0.000191084
2 *3680:ZN 0.000191084
3 *3691:I *3698:I 9.83524e-05
4 *3614:I *3691:I 0
5 *3636:I *3691:I 0
6 *3680:I *3691:I 0.000222333
*RES
1 *3680:ZN *3691:I 19.748 
*END

*D_NET *530 0.000200316
*CONN
*I *3692:I I *D gf180mcu_fd_sc_mcu7t5v0__inv_1
*I *3690:ZN O *D gf180mcu_fd_sc_mcu7t5v0__inv_1
*CAP
1 *3692:I 7.91338e-05
2 *3690:ZN 7.91338e-05
3 *3690:I *3692:I 4.20481e-05
*RES
1 *3690:ZN *3692:I 9.532 
*END

*D_NET *531 0.000158486
*CONN
*I *3693:I I *D gf180mcu_fd_sc_mcu7t5v0__clkinv_2
*I *3692:ZN O *D gf180mcu_fd_sc_mcu7t5v0__inv_1
*CAP
1 *3693:I 7.17357e-05
2 *3692:ZN 7.17357e-05
3 *3521:I *3693:I 0
4 *3689:I *3693:I 0
5 *325:89 *3693:I 1.5015e-05
*RES
1 *3692:ZN *3693:I 9.532 
*END

*D_NET *532 0.000720106
*CONN
*I *3170:A2 I *D gf180mcu_fd_sc_mcu7t5v0__xor2_1
*I *3522:I I *D gf180mcu_fd_sc_mcu7t5v0__buf_1
*I *3693:ZN O *D gf180mcu_fd_sc_mcu7t5v0__clkinv_2
*CAP
1 *3170:A2 0
2 *3522:I 6.40078e-05
3 *3693:ZN 0.000122992
4 *532:6 0.000187
5 *3453:D *3522:I 0
6 *325:89 *532:6 0.000130627
7 *430:10 *3522:I 0.00021548
*RES
1 *3693:ZN *532:6 5.488 
2 *532:6 *3522:I 14.184 
3 *532:6 *3170:A2 4.5 
*END

*D_NET *533 0.000476242
*CONN
*I *3694:I I *D gf180mcu_fd_sc_mcu7t5v0__inv_1
*I *3691:ZN O *D gf180mcu_fd_sc_mcu7t5v0__inv_1
*CAP
1 *3694:I 0.000210313
2 *3691:ZN 0.000210313
3 *3694:I *3696:I 4.03461e-05
4 *3694:I *3698:I 1.52691e-05
5 *3694:I *3699:I 0
6 *3669:I *3694:I 0
*RES
1 *3691:ZN *3694:I 10.368 
*END

*D_NET *534 0.000153083
*CONN
*I *3695:I I *D gf180mcu_fd_sc_mcu7t5v0__inv_2
*I *3592:ZN O *D gf180mcu_fd_sc_mcu7t5v0__inv_2
*CAP
1 *3695:I 7.65413e-05
2 *3592:ZN 7.65413e-05
3 *3695:I *3717:I 0
4 *3695:I *3728:I 0
*RES
1 *3592:ZN *3695:I 9.532 
*END

*D_NET *535 0.000195575
*CONN
*I *3696:I I *D gf180mcu_fd_sc_mcu7t5v0__inv_1
*I *3694:ZN O *D gf180mcu_fd_sc_mcu7t5v0__inv_1
*CAP
1 *3696:I 2.50619e-05
2 *3694:ZN 2.50619e-05
3 *3696:I *3699:I 0.000105105
4 *3694:I *3696:I 4.03461e-05
*RES
1 *3694:ZN *3696:I 9.532 
*END

*D_NET *536 0.000202224
*CONN
*I *3697:I I *D gf180mcu_fd_sc_mcu7t5v0__inv_1
*I *3696:ZN O *D gf180mcu_fd_sc_mcu7t5v0__inv_1
*CAP
1 *3697:I 9.36047e-05
2 *3696:ZN 9.36047e-05
3 *3697:I *3699:I 1.5015e-05
4 *3697:I *3700:I 0
*RES
1 *3696:ZN *3697:I 9.684 
*END

*D_NET *537 0.00072953
*CONN
*I *3698:I I *D gf180mcu_fd_sc_mcu7t5v0__inv_1
*I *3697:ZN O *D gf180mcu_fd_sc_mcu7t5v0__inv_1
*CAP
1 *3698:I 0.000298692
2 *3697:ZN 0.000298692
3 *3680:I *3698:I 1.85245e-05
4 *3691:I *3698:I 9.83524e-05
5 *3694:I *3698:I 1.52691e-05
*RES
1 *3697:ZN *3698:I 20.128 
*END

*D_NET *538 0.000706268
*CONN
*I *3699:I I *D gf180mcu_fd_sc_mcu7t5v0__inv_1
*I *3698:ZN O *D gf180mcu_fd_sc_mcu7t5v0__inv_1
*CAP
1 *3699:I 0.000293074
2 *3698:ZN 0.000293074
3 *3694:I *3699:I 0
4 *3696:I *3699:I 0.000105105
5 *3697:I *3699:I 1.5015e-05
*RES
1 *3698:ZN *3699:I 11.128 
*END

*D_NET *539 0.000153083
*CONN
*I *3700:I I *D gf180mcu_fd_sc_mcu7t5v0__inv_1
*I *3699:ZN O *D gf180mcu_fd_sc_mcu7t5v0__inv_1
*CAP
1 *3700:I 7.65413e-05
2 *3699:ZN 7.65413e-05
3 *3697:I *3700:I 0
*RES
1 *3699:ZN *3700:I 9.532 
*END

*D_NET *540 0.000153749
*CONN
*I *3701:I I *D gf180mcu_fd_sc_mcu7t5v0__inv_1
*I *3700:ZN O *D gf180mcu_fd_sc_mcu7t5v0__inv_1
*CAP
1 *3701:I 7.39927e-05
2 *3700:ZN 7.39927e-05
3 *3701:I *3703:I 5.76373e-06
*RES
1 *3700:ZN *3701:I 9.532 
*END

*D_NET *541 0.000241189
*CONN
*I *3702:I I *D gf180mcu_fd_sc_mcu7t5v0__inv_1
*I *3701:ZN O *D gf180mcu_fd_sc_mcu7t5v0__inv_1
*CAP
1 *3702:I 6.67569e-05
2 *3701:ZN 6.67569e-05
3 *3702:I *3703:I 0.000105105
4 *3702:I *3705:I 2.57058e-06
*RES
1 *3701:ZN *3702:I 9.684 
*END

*D_NET *542 0.00053528
*CONN
*I *3703:I I *D gf180mcu_fd_sc_mcu7t5v0__inv_1
*I *3702:ZN O *D gf180mcu_fd_sc_mcu7t5v0__inv_1
*CAP
1 *3703:I 0.000189384
2 *3702:ZN 0.000189384
3 *3703:I *3704:I 4.26315e-06
4 *3703:I *3705:I 4.1381e-05
5 *3701:I *3703:I 5.76373e-06
6 *3702:I *3703:I 0.000105105
*RES
1 *3702:ZN *3703:I 10.444 
*END

*D_NET *543 0.00120477
*CONN
*I *3704:I I *D gf180mcu_fd_sc_mcu7t5v0__inv_1
*I *3703:ZN O *D gf180mcu_fd_sc_mcu7t5v0__inv_1
*CAP
1 *3704:I 0.000431585
2 *3703:ZN 0.000431585
3 *3704:I *3705:I 0.000180784
4 *3704:I *3707:I 0.000156551
5 *3703:I *3704:I 4.26315e-06
*RES
1 *3703:ZN *3704:I 12.116 
*END

*D_NET *544 0.000507205
*CONN
*I *3705:I I *D gf180mcu_fd_sc_mcu7t5v0__inv_1
*I *3704:ZN O *D gf180mcu_fd_sc_mcu7t5v0__inv_1
*CAP
1 *3705:I 0.000141235
2 *3704:ZN 0.000141235
3 *3702:I *3705:I 2.57058e-06
4 *3703:I *3705:I 4.1381e-05
5 *3704:I *3705:I 0.000180784
*RES
1 *3704:ZN *3705:I 10.292 
*END

*D_NET *545 0.000945049
*CONN
*I *3706:I I *D gf180mcu_fd_sc_mcu7t5v0__inv_1
*I *3695:ZN O *D gf180mcu_fd_sc_mcu7t5v0__inv_2
*CAP
1 *3706:I 0.000414219
2 *3695:ZN 0.000414219
3 *3706:I *4022:I 8.92063e-06
4 *3592:I *3706:I 0.00010769
*RES
1 *3695:ZN *3706:I 20.584 
*END

*D_NET *546 0.000840957
*CONN
*I *3707:I I *D gf180mcu_fd_sc_mcu7t5v0__inv_1
*I *3705:ZN O *D gf180mcu_fd_sc_mcu7t5v0__inv_1
*CAP
1 *3707:I 0.000257746
2 *3705:ZN 0.000257746
3 *3707:I *3708:I 2.57058e-06
4 *3707:I *3709:I 0.000125313
5 *3707:I *3710:I 4.10312e-05
6 *3707:I *3712:I 0
7 *3704:I *3707:I 0.000156551
*RES
1 *3705:ZN *3707:I 20.204 
*END

*D_NET *547 0.000381005
*CONN
*I *3708:I I *D gf180mcu_fd_sc_mcu7t5v0__inv_1
*I *3707:ZN O *D gf180mcu_fd_sc_mcu7t5v0__inv_1
*CAP
1 *3708:I 7.20024e-05
2 *3707:ZN 7.20024e-05
3 *3708:I *3709:I 0.000105105
4 *3708:I *3712:I 0.000129324
5 *3707:I *3708:I 2.57058e-06
*RES
1 *3707:ZN *3708:I 9.912 
*END

*D_NET *548 0.000596189
*CONN
*I *3709:I I *D gf180mcu_fd_sc_mcu7t5v0__inv_1
*I *3708:ZN O *D gf180mcu_fd_sc_mcu7t5v0__inv_1
*CAP
1 *3709:I 0.000119254
2 *3708:ZN 0.000119254
3 *3709:I *3710:I 0.00010568
4 *3709:I *3711:I 6.23713e-06
5 *3709:I *3712:I 1.53449e-05
6 *3707:I *3709:I 0.000125313
7 *3708:I *3709:I 0.000105105
*RES
1 *3708:ZN *3709:I 10.444 
*END

*D_NET *549 0.00134567
*CONN
*I *3710:I I *D gf180mcu_fd_sc_mcu7t5v0__inv_1
*I *3709:ZN O *D gf180mcu_fd_sc_mcu7t5v0__inv_1
*CAP
1 *3710:I 0.000346654
2 *3709:ZN 0.000346654
3 *3710:I *3711:I 0.000439257
4 *3710:I *3713:I 5.04286e-05
5 *3710:I *3714:I 1.5961e-05
6 *3707:I *3710:I 4.10312e-05
7 *3709:I *3710:I 0.00010568
*RES
1 *3709:ZN *3710:I 20.584 
*END

*D_NET *550 0.000912664
*CONN
*I *3711:I I *D gf180mcu_fd_sc_mcu7t5v0__inv_1
*I *3710:ZN O *D gf180mcu_fd_sc_mcu7t5v0__inv_1
*CAP
1 *3711:I 0.00014496
2 *3710:ZN 0.00014496
3 *3711:I *3712:I 2.49331e-05
4 *3711:I *3713:I 0.000152316
5 *3709:I *3711:I 6.23713e-06
6 *3710:I *3711:I 0.000439257
*RES
1 *3710:ZN *3711:I 19.444 
*END

*D_NET *551 0.00110893
*CONN
*I *3712:I I *D gf180mcu_fd_sc_mcu7t5v0__inv_1
*I *3711:ZN O *D gf180mcu_fd_sc_mcu7t5v0__inv_1
*CAP
1 *3712:I 0.000228538
2 *3711:ZN 0.000228538
3 *3712:I *3713:I 0.000482255
4 *3707:I *3712:I 0
5 *3708:I *3712:I 0.000129324
6 *3709:I *3712:I 1.53449e-05
7 *3711:I *3712:I 2.49331e-05
*RES
1 *3711:ZN *3712:I 11.432 
*END

*D_NET *552 0.0010988
*CONN
*I *3713:I I *D gf180mcu_fd_sc_mcu7t5v0__inv_1
*I *3712:ZN O *D gf180mcu_fd_sc_mcu7t5v0__inv_1
*CAP
1 *3713:I 0.000206902
2 *3712:ZN 0.000206902
3 *3713:I *3934:I 0
4 *3713:I *3935:I 0
5 *3710:I *3713:I 5.04286e-05
6 *3711:I *3713:I 0.000152316
7 *3712:I *3713:I 0.000482255
*RES
1 *3712:ZN *3713:I 11.204 
*END

*D_NET *553 0.000364899
*CONN
*I *3714:I I *D gf180mcu_fd_sc_mcu7t5v0__inv_1
*I *3713:ZN O *D gf180mcu_fd_sc_mcu7t5v0__inv_1
*CAP
1 *3714:I 0.00015305
2 *3713:ZN 0.00015305
3 *3714:I *3716:I 4.28386e-05
4 *3710:I *3714:I 1.5961e-05
*RES
1 *3713:ZN *3714:I 18.988 
*END

*D_NET *554 0.000494379
*CONN
*I *3715:I I *D gf180mcu_fd_sc_mcu7t5v0__inv_1
*I *3714:ZN O *D gf180mcu_fd_sc_mcu7t5v0__inv_1
*CAP
1 *3715:I 0.000203647
2 *3714:ZN 0.000203647
3 *3715:I *3716:I 8.70862e-05
4 *3715:I *3719:I 0
*RES
1 *3714:ZN *3715:I 10.368 
*END

*D_NET *555 0.0008241
*CONN
*I *3716:I I *D gf180mcu_fd_sc_mcu7t5v0__inv_1
*I *3715:ZN O *D gf180mcu_fd_sc_mcu7t5v0__inv_1
*CAP
1 *3716:I 0.000266722
2 *3715:ZN 0.000266722
3 *3716:I *3719:I 0.000160732
4 *3716:I *3720:I 0
5 *3714:I *3716:I 4.28386e-05
6 *3715:I *3716:I 8.70862e-05
*RES
1 *3715:ZN *3716:I 19.976 
*END

*D_NET *556 0.000153083
*CONN
*I *3717:I I *D gf180mcu_fd_sc_mcu7t5v0__inv_1
*I *3706:ZN O *D gf180mcu_fd_sc_mcu7t5v0__inv_1
*CAP
1 *3717:I 7.65413e-05
2 *3706:ZN 7.65413e-05
3 *3695:I *3717:I 0
*RES
1 *3706:ZN *3717:I 9.532 
*END

*D_NET *557 0.000240717
*CONN
*I *3718:I I *D gf180mcu_fd_sc_mcu7t5v0__inv_1
*I *3716:ZN O *D gf180mcu_fd_sc_mcu7t5v0__inv_1
*CAP
1 *3718:I 5.74169e-05
2 *3716:ZN 5.74169e-05
3 *3718:I *3719:I 0.000105105
4 *3718:I *3721:I 2.07787e-05
*RES
1 *3716:ZN *3718:I 9.684 
*END

*D_NET *558 0.000625745
*CONN
*I *3719:I I *D gf180mcu_fd_sc_mcu7t5v0__inv_1
*I *3718:ZN O *D gf180mcu_fd_sc_mcu7t5v0__inv_1
*CAP
1 *3719:I 0.000148862
2 *3718:ZN 0.000148862
3 *3719:I *3721:I 6.21845e-05
4 *3715:I *3719:I 0
5 *3716:I *3719:I 0.000160732
6 *3718:I *3719:I 0.000105105
*RES
1 *3718:ZN *3719:I 10.52 
*END

*D_NET *559 0.000882993
*CONN
*I *3720:I I *D gf180mcu_fd_sc_mcu7t5v0__inv_1
*I *3719:ZN O *D gf180mcu_fd_sc_mcu7t5v0__inv_1
*CAP
1 *3720:I 0.000419704
2 *3719:ZN 0.000419704
3 *3720:I *3721:I 3.23347e-05
4 *3720:I *3723:I 1.12495e-05
5 *3716:I *3720:I 0
*RES
1 *3719:ZN *3720:I 20.128 
*END

*D_NET *560 0.000538331
*CONN
*I *3721:I I *D gf180mcu_fd_sc_mcu7t5v0__inv_1
*I *3720:ZN O *D gf180mcu_fd_sc_mcu7t5v0__inv_1
*CAP
1 *3721:I 0.000198676
2 *3720:ZN 0.000198676
3 *3721:I *3722:I 2.56813e-05
4 *3718:I *3721:I 2.07787e-05
5 *3719:I *3721:I 6.21845e-05
6 *3720:I *3721:I 3.23347e-05
*RES
1 *3720:ZN *3721:I 10.672 
*END

*D_NET *561 0.000157942
*CONN
*I *3722:I I *D gf180mcu_fd_sc_mcu7t5v0__inv_1
*I *3721:ZN O *D gf180mcu_fd_sc_mcu7t5v0__inv_1
*CAP
1 *3722:I 6.25097e-05
2 *3721:ZN 6.25097e-05
3 *3722:I *3724:I 7.24161e-06
4 *3721:I *3722:I 2.56813e-05
*RES
1 *3721:ZN *3722:I 9.532 
*END

*D_NET *562 0.000225643
*CONN
*I *3723:I I *D gf180mcu_fd_sc_mcu7t5v0__inv_1
*I *3722:ZN O *D gf180mcu_fd_sc_mcu7t5v0__inv_1
*CAP
1 *3723:I 0.000107197
2 *3722:ZN 0.000107197
3 *3723:I *3727:I 0
4 *3720:I *3723:I 1.12495e-05
*RES
1 *3722:ZN *3723:I 18.684 
*END

*D_NET *563 0.00046888
*CONN
*I *3724:I I *D gf180mcu_fd_sc_mcu7t5v0__inv_1
*I *3723:ZN O *D gf180mcu_fd_sc_mcu7t5v0__inv_1
*CAP
1 *3724:I 0.000196769
2 *3723:ZN 0.000196769
3 *3724:I *3725:I 6.80998e-05
4 *3722:I *3724:I 7.24161e-06
*RES
1 *3723:ZN *3724:I 10.52 
*END

*D_NET *564 0.00017196
*CONN
*I *3725:I I *D gf180mcu_fd_sc_mcu7t5v0__inv_1
*I *3724:ZN O *D gf180mcu_fd_sc_mcu7t5v0__inv_1
*CAP
1 *3725:I 5.19301e-05
2 *3724:ZN 5.19301e-05
3 *3725:I *3729:I 0
4 *3724:I *3725:I 6.80998e-05
*RES
1 *3724:ZN *3725:I 9.532 
*END

*D_NET *565 0.000196821
*CONN
*I *3726:I I *D gf180mcu_fd_sc_mcu7t5v0__inv_1
*I *3725:ZN O *D gf180mcu_fd_sc_mcu7t5v0__inv_1
*CAP
1 *3726:I 9.84103e-05
2 *3725:ZN 9.84103e-05
3 *3726:I *3729:I 0
4 *3726:I *3730:I 0
*RES
1 *3725:ZN *3726:I 9.684 
*END

*D_NET *566 0.000602198
*CONN
*I *3727:I I *D gf180mcu_fd_sc_mcu7t5v0__inv_1
*I *3726:ZN O *D gf180mcu_fd_sc_mcu7t5v0__inv_1
*CAP
1 *3727:I 0.000301099
2 *3726:ZN 0.000301099
3 *3723:I *3727:I 0
*RES
1 *3726:ZN *3727:I 19.672 
*END

*D_NET *567 0.000196821
*CONN
*I *3728:I I *D gf180mcu_fd_sc_mcu7t5v0__inv_1
*I *3717:ZN O *D gf180mcu_fd_sc_mcu7t5v0__inv_1
*CAP
1 *3728:I 9.84103e-05
2 *3717:ZN 9.84103e-05
3 *3728:I *3750:I 0
4 *3695:I *3728:I 0
*RES
1 *3717:ZN *3728:I 9.684 
*END

*D_NET *568 0.00015697
*CONN
*I *3729:I I *D gf180mcu_fd_sc_mcu7t5v0__inv_1
*I *3727:ZN O *D gf180mcu_fd_sc_mcu7t5v0__inv_1
*CAP
1 *3729:I 6.76225e-05
2 *3727:ZN 6.76225e-05
3 *3729:I *3731:I 2.17248e-05
4 *3725:I *3729:I 0
5 *3726:I *3729:I 0
*RES
1 *3727:ZN *3729:I 9.532 
*END

*D_NET *569 0.000234647
*CONN
*I *3730:I I *D gf180mcu_fd_sc_mcu7t5v0__inv_1
*I *3729:ZN O *D gf180mcu_fd_sc_mcu7t5v0__inv_1
*CAP
1 *3730:I 6.47711e-05
2 *3729:ZN 6.47711e-05
3 *3730:I *3731:I 0.000105105
4 *3726:I *3730:I 0
*RES
1 *3729:ZN *3730:I 9.684 
*END

*D_NET *570 0.000553036
*CONN
*I *3731:I I *D gf180mcu_fd_sc_mcu7t5v0__inv_1
*I *3730:ZN O *D gf180mcu_fd_sc_mcu7t5v0__inv_1
*CAP
1 *3731:I 0.000179053
2 *3730:ZN 0.000179053
3 *3731:I *3732:I 6.80998e-05
4 *3729:I *3731:I 2.17248e-05
5 *3730:I *3731:I 0.000105105
*RES
1 *3730:ZN *3731:I 10.672 
*END

*D_NET *571 0.00017196
*CONN
*I *3732:I I *D gf180mcu_fd_sc_mcu7t5v0__inv_2
*I *3731:ZN O *D gf180mcu_fd_sc_mcu7t5v0__inv_1
*CAP
1 *3732:I 5.19301e-05
2 *3731:ZN 5.19301e-05
3 *3731:I *3732:I 6.80998e-05
*RES
1 *3731:ZN *3732:I 9.532 
*END

*D_NET *572 0.000183831
*CONN
*I *3733:I I *D gf180mcu_fd_sc_mcu7t5v0__inv_2
*I *3732:ZN O *D gf180mcu_fd_sc_mcu7t5v0__inv_2
*CAP
1 *3733:I 5.73908e-05
2 *3732:ZN 5.73908e-05
3 *3733:I *3734:I 6.90494e-05
*RES
1 *3732:ZN *3733:I 9.532 
*END

*D_NET *573 0.000543692
*CONN
*I *3734:I I *D gf180mcu_fd_sc_mcu7t5v0__inv_2
*I *3733:ZN O *D gf180mcu_fd_sc_mcu7t5v0__inv_2
*CAP
1 *3734:I 0.000207367
2 *3733:ZN 0.000207367
3 *3734:I *3736:I 1.15007e-05
4 *3734:I *3737:I 4.84085e-05
5 *3733:I *3734:I 6.90494e-05
*RES
1 *3733:ZN *3734:I 10.368 
*END

*D_NET *574 0.00110453
*CONN
*I *3735:I I *D gf180mcu_fd_sc_mcu7t5v0__inv_2
*I *3734:ZN O *D gf180mcu_fd_sc_mcu7t5v0__inv_2
*CAP
1 *3735:I 0.000348827
2 *3734:ZN 0.000348827
3 *3735:I *3736:I 1.7981e-05
4 *3735:I *3737:I 0.000308603
5 *3735:I *3741:I 8.02955e-05
*RES
1 *3734:ZN *3735:I 20.28 
*END

*D_NET *575 0.00135946
*CONN
*I *3736:I I *D gf180mcu_fd_sc_mcu7t5v0__inv_2
*I *3735:ZN O *D gf180mcu_fd_sc_mcu7t5v0__inv_2
*CAP
1 *3736:I 0.00035849
2 *3735:ZN 0.00035849
3 *3736:I *3737:I 0.000613002
4 *3736:I *3741:I 0
5 *3734:I *3736:I 1.15007e-05
6 *3735:I *3736:I 1.7981e-05
*RES
1 *3735:ZN *3736:I 20.736 
*END

*D_NET *576 0.0019789
*CONN
*I *3737:I I *D gf180mcu_fd_sc_mcu7t5v0__inv_1
*I *3736:ZN O *D gf180mcu_fd_sc_mcu7t5v0__inv_2
*CAP
1 *3737:I 0.00042585
2 *3736:ZN 0.00042585
3 *3737:I *3740:I 5.9475e-05
4 *3737:I *3741:I 2.05799e-05
5 *3737:I *3742:I 2.23783e-05
6 *3737:I *3743:I 5.47502e-05
7 *3734:I *3737:I 4.84085e-05
8 *3735:I *3737:I 0.000308603
9 *3736:I *3737:I 0.000613002
*RES
1 *3736:ZN *3737:I 21.724 
*END

*D_NET *577 0.000196821
*CONN
*I *3738:I I *D gf180mcu_fd_sc_mcu7t5v0__inv_1
*I *3737:ZN O *D gf180mcu_fd_sc_mcu7t5v0__inv_1
*CAP
1 *3738:I 9.84103e-05
2 *3737:ZN 9.84103e-05
*RES
1 *3737:ZN *3738:I 9.684 
*END

*D_NET *578 0.000311237
*CONN
*I *3739:I I *D gf180mcu_fd_sc_mcu7t5v0__inv_2
*I *3728:ZN O *D gf180mcu_fd_sc_mcu7t5v0__inv_1
*CAP
1 *3739:I 0.000140173
2 *3728:ZN 0.000140173
3 *3739:I *3750:I 3.08902e-05
*RES
1 *3728:ZN *3739:I 9.836 
*END

*D_NET *579 0.00111415
*CONN
*I *3740:I I *D gf180mcu_fd_sc_mcu7t5v0__inv_1
*I *3738:ZN O *D gf180mcu_fd_sc_mcu7t5v0__inv_1
*CAP
1 *3740:I 0.000319248
2 *3738:ZN 0.000319248
3 *3740:I *3741:I 0
4 *3740:I *3742:I 0.000308603
5 *3740:I *3743:I 1.93987e-05
6 *3740:I *3745:I 5.66139e-05
7 *3740:I *3746:I 3.15673e-05
8 *3737:I *3740:I 5.9475e-05
*RES
1 *3738:ZN *3740:I 20.28 
*END

*D_NET *580 0.0015503
*CONN
*I *3741:I I *D gf180mcu_fd_sc_mcu7t5v0__inv_1
*I *3740:ZN O *D gf180mcu_fd_sc_mcu7t5v0__inv_1
*CAP
1 *3741:I 0.000611
2 *3740:ZN 0.000611
3 *3741:I *3742:I 2.96621e-05
4 *3741:I *3743:I 4.5818e-05
5 *3741:I *3746:I 0.000151949
6 *3735:I *3741:I 8.02955e-05
7 *3736:I *3741:I 0
8 *3737:I *3741:I 2.05799e-05
9 *3740:I *3741:I 0
*RES
1 *3740:ZN *3741:I 21.724 
*END

*D_NET *581 0.00144899
*CONN
*I *3742:I I *D gf180mcu_fd_sc_mcu7t5v0__inv_1
*I *3741:ZN O *D gf180mcu_fd_sc_mcu7t5v0__inv_1
*CAP
1 *3742:I 0.000182815
2 *3741:ZN 0.000182815
3 *3742:I *3743:I 0.000298539
4 *3742:I *3745:I 0.000135941
5 *3742:I *3746:I 0.000234404
6 *3742:I *3748:I 5.3833e-05
7 *3737:I *3742:I 2.23783e-05
8 *3740:I *3742:I 0.000308603
9 *3741:I *3742:I 2.96621e-05
*RES
1 *3741:ZN *3742:I 20.356 
*END

*D_NET *582 0.00174407
*CONN
*I *3743:I I *D gf180mcu_fd_sc_mcu7t5v0__inv_1
*I *3742:ZN O *D gf180mcu_fd_sc_mcu7t5v0__inv_1
*CAP
1 *3743:I 0.000353717
2 *3742:ZN 0.000353717
3 *3743:I *3745:I 0.000358653
4 *3743:I *3746:I 3.43013e-05
5 *3743:I *3748:I 0.000199448
6 *3743:I *3749:I 2.57274e-05
7 *3743:I *3753:I 0
8 *3737:I *3743:I 5.47502e-05
9 *3740:I *3743:I 1.93987e-05
10 *3741:I *3743:I 4.5818e-05
11 *3742:I *3743:I 0.000298539
*RES
1 *3742:ZN *3743:I 21.268 
*END

*D_NET *583 0.000196821
*CONN
*I *3744:I I *D gf180mcu_fd_sc_mcu7t5v0__inv_1
*I *3743:ZN O *D gf180mcu_fd_sc_mcu7t5v0__inv_1
*CAP
1 *3744:I 9.84103e-05
2 *3743:ZN 9.84103e-05
*RES
1 *3743:ZN *3744:I 9.684 
*END

*D_NET *584 0.00149762
*CONN
*I *3745:I I *D gf180mcu_fd_sc_mcu7t5v0__inv_1
*I *3744:ZN O *D gf180mcu_fd_sc_mcu7t5v0__inv_1
*CAP
1 *3745:I 0.000197541
2 *3744:ZN 0.000197541
3 *3745:I *3746:I 0.000137317
4 *3745:I *3747:I 0.000188443
5 *3745:I *3748:I 2.771e-05
6 *3745:I *3749:I 0.000197862
7 *3740:I *3745:I 5.66139e-05
8 *3742:I *3745:I 0.000135941
9 *3743:I *3745:I 0.000358653
*RES
1 *3744:ZN *3745:I 20.508 
*END

*D_NET *585 0.00197757
*CONN
*I *3746:I I *D gf180mcu_fd_sc_mcu7t5v0__inv_1
*I *3745:ZN O *D gf180mcu_fd_sc_mcu7t5v0__inv_1
*CAP
1 *3746:I 0.000380216
2 *3745:ZN 0.000380216
3 *3746:I *3748:I 0.000627598
4 *3740:I *3746:I 3.15673e-05
5 *3741:I *3746:I 0.000151949
6 *3742:I *3746:I 0.000234404
7 *3743:I *3746:I 3.43013e-05
8 *3745:I *3746:I 0.000137317
*RES
1 *3745:ZN *3746:I 21.344 
*END

*D_NET *586 0.00113799
*CONN
*I *3747:I I *D gf180mcu_fd_sc_mcu7t5v0__inv_1
*I *3746:ZN O *D gf180mcu_fd_sc_mcu7t5v0__inv_1
*CAP
1 *3747:I 0.000289444
2 *3746:ZN 0.000289444
3 *3747:I *3749:I 4.76362e-05
4 *3747:I *3751:I 0.000268065
5 *3747:I *3753:I 5.49568e-05
6 *3745:I *3747:I 0.000188443
*RES
1 *3746:ZN *3747:I 20.432 
*END

*D_NET *587 0.00207632
*CONN
*I *3748:I I *D gf180mcu_fd_sc_mcu7t5v0__inv_1
*I *3747:ZN O *D gf180mcu_fd_sc_mcu7t5v0__inv_1
*CAP
1 *3748:I 0.000290907
2 *3747:ZN 0.000290907
3 *3748:I *3749:I 0.00056364
4 *3748:I *3753:I 2.22758e-05
5 *3748:I *3756:I 0
6 *3742:I *3748:I 5.3833e-05
7 *3743:I *3748:I 0.000199448
8 *3745:I *3748:I 2.771e-05
9 *3746:I *3748:I 0.000627598
*RES
1 *3747:ZN *3748:I 21.42 
*END

*D_NET *588 0.00131472
*CONN
*I *3749:I I *D gf180mcu_fd_sc_mcu7t5v0__clkinv_1
*I *3748:ZN O *D gf180mcu_fd_sc_mcu7t5v0__inv_1
*CAP
1 *3749:I 0.000236241
2 *3748:ZN 0.000236241
3 *3749:I *3751:I 7.37447e-06
4 *3743:I *3749:I 2.57274e-05
5 *3745:I *3749:I 0.000197862
6 *3747:I *3749:I 4.76362e-05
7 *3748:I *3749:I 0.00056364
*RES
1 *3748:ZN *3749:I 20.28 
*END

*D_NET *589 0.00034513
*CONN
*I *3750:I I *D gf180mcu_fd_sc_mcu7t5v0__inv_2
*I *3739:ZN O *D gf180mcu_fd_sc_mcu7t5v0__inv_2
*CAP
1 *3750:I 0.000145987
2 *3739:ZN 0.000145987
3 *3750:I *3772:I 2.22657e-05
4 *3728:I *3750:I 0
5 *3739:I *3750:I 3.08902e-05
*RES
1 *3739:ZN *3750:I 10.368 
*END

*D_NET *590 0.00048772
*CONN
*I *3751:I I *D gf180mcu_fd_sc_mcu7t5v0__clkinv_1
*I *3749:ZN O *D gf180mcu_fd_sc_mcu7t5v0__clkinv_1
*CAP
1 *3751:I 0.00010614
2 *3749:ZN 0.00010614
3 *3747:I *3751:I 0.000268065
4 *3749:I *3751:I 7.37447e-06
*RES
1 *3749:ZN *3751:I 18.988 
*END

*D_NET *591 0.000235828
*CONN
*I *3752:I I *D gf180mcu_fd_sc_mcu7t5v0__clkinv_1
*I *3751:ZN O *D gf180mcu_fd_sc_mcu7t5v0__clkinv_1
*CAP
1 *3752:I 8.70131e-05
2 *3751:ZN 8.70131e-05
3 *3752:I *3753:I 6.18013e-05
*RES
1 *3751:ZN *3752:I 9.684 
*END

*D_NET *592 0.00097091
*CONN
*I *3753:I I *D gf180mcu_fd_sc_mcu7t5v0__inv_1
*I *3752:ZN O *D gf180mcu_fd_sc_mcu7t5v0__clkinv_1
*CAP
1 *3753:I 0.000411021
2 *3752:ZN 0.000411021
3 *3753:I *3754:I 0
4 *3753:I *3755:I 9.83387e-06
5 *3743:I *3753:I 0
6 *3747:I *3753:I 5.49568e-05
7 *3748:I *3753:I 2.22758e-05
8 *3752:I *3753:I 6.18013e-05
*RES
1 *3752:ZN *3753:I 11.508 
*END

*D_NET *593 0.000622508
*CONN
*I *3754:I I *D gf180mcu_fd_sc_mcu7t5v0__inv_1
*I *3753:ZN O *D gf180mcu_fd_sc_mcu7t5v0__inv_1
*CAP
1 *3754:I 0.000311254
2 *3753:ZN 0.000311254
3 *3753:I *3754:I 0
*RES
1 *3753:ZN *3754:I 10.824 
*END

*D_NET *594 0.000562922
*CONN
*I *3755:I I *D gf180mcu_fd_sc_mcu7t5v0__inv_1
*I *3754:ZN O *D gf180mcu_fd_sc_mcu7t5v0__inv_1
*CAP
1 *3755:I 0.000110727
2 *3754:ZN 0.000110727
3 *3755:I *3756:I 0.000331635
4 *3753:I *3755:I 9.83387e-06
*RES
1 *3754:ZN *3755:I 10.064 
*END

*D_NET *595 0.000870368
*CONN
*I *3756:I I *D gf180mcu_fd_sc_mcu7t5v0__inv_1
*I *3755:ZN O *D gf180mcu_fd_sc_mcu7t5v0__inv_1
*CAP
1 *3756:I 0.000225415
2 *3755:ZN 0.000225415
3 *3756:I *3758:I 8.7903e-05
4 *3756:I *3759:I 0
5 *3748:I *3756:I 0
6 *3755:I *3756:I 0.000331635
*RES
1 *3755:ZN *3756:I 11.052 
*END

*D_NET *596 0.000225135
*CONN
*I *3757:I I *D gf180mcu_fd_sc_mcu7t5v0__inv_1
*I *3756:ZN O *D gf180mcu_fd_sc_mcu7t5v0__inv_1
*CAP
1 *3757:I 0.000112568
2 *3756:ZN 0.000112568
*RES
1 *3756:ZN *3757:I 18.684 
*END

*D_NET *597 0.000574123
*CONN
*I *3758:I I *D gf180mcu_fd_sc_mcu7t5v0__inv_1
*I *3757:ZN O *D gf180mcu_fd_sc_mcu7t5v0__inv_1
*CAP
1 *3758:I 0.000168621
2 *3757:ZN 0.000168621
3 *3758:I *3759:I 0.000148978
4 *3756:I *3758:I 8.7903e-05
*RES
1 *3757:ZN *3758:I 10.368 
*END

*D_NET *598 0.000789371
*CONN
*I *3759:I I *D gf180mcu_fd_sc_mcu7t5v0__inv_1
*I *3758:ZN O *D gf180mcu_fd_sc_mcu7t5v0__inv_1
*CAP
1 *3759:I 0.000317291
2 *3758:ZN 0.000317291
3 *3759:I *3762:I 5.81078e-06
4 *3756:I *3759:I 0
5 *3758:I *3759:I 0.000148978
*RES
1 *3758:ZN *3759:I 10.976 
*END

*D_NET *599 0.000207231
*CONN
*I *3760:I I *D gf180mcu_fd_sc_mcu7t5v0__inv_1
*I *3759:ZN O *D gf180mcu_fd_sc_mcu7t5v0__inv_1
*CAP
1 *3760:I 0.000103616
2 *3759:ZN 0.000103616
*RES
1 *3759:ZN *3760:I 9.684 
*END

*D_NET *600 0.000153083
*CONN
*I *3761:I I *D gf180mcu_fd_sc_mcu7t5v0__inv_2
*I *3750:ZN O *D gf180mcu_fd_sc_mcu7t5v0__inv_2
*CAP
1 *3761:I 7.65413e-05
2 *3750:ZN 7.65413e-05
3 *3603:I *3761:I 0
*RES
1 *3750:ZN *3761:I 9.532 
*END

*D_NET *601 0.000399059
*CONN
*I *3762:I I *D gf180mcu_fd_sc_mcu7t5v0__inv_2
*I *3760:ZN O *D gf180mcu_fd_sc_mcu7t5v0__inv_1
*CAP
1 *3762:I 0.000168659
2 *3760:ZN 0.000168659
3 *3762:I *3763:I 5.59303e-05
4 *3759:I *3762:I 5.81078e-06
*RES
1 *3760:ZN *3762:I 10.064 
*END

*D_NET *602 0.00035354
*CONN
*I *3763:I I *D gf180mcu_fd_sc_mcu7t5v0__inv_2
*I *3762:ZN O *D gf180mcu_fd_sc_mcu7t5v0__inv_2
*CAP
1 *3763:I 0.000144391
2 *3762:ZN 0.000144391
3 *3763:I *3765:I 8.82876e-06
4 *3763:I *3768:I 0
5 *3762:I *3763:I 5.59303e-05
*RES
1 *3762:ZN *3763:I 10.064 
*END

*D_NET *603 0.000206541
*CONN
*I *3764:I I *D gf180mcu_fd_sc_mcu7t5v0__inv_2
*I *3763:ZN O *D gf180mcu_fd_sc_mcu7t5v0__inv_2
*CAP
1 *3764:I 5.49359e-05
2 *3763:ZN 5.49359e-05
3 *3764:I *3765:I 9.66692e-05
*RES
1 *3763:ZN *3764:I 9.532 
*END

*D_NET *604 0.000574311
*CONN
*I *3765:I I *D gf180mcu_fd_sc_mcu7t5v0__inv_2
*I *3764:ZN O *D gf180mcu_fd_sc_mcu7t5v0__inv_2
*CAP
1 *3765:I 0.000232113
2 *3764:ZN 0.000232113
3 *3765:I *3766:I 4.58601e-06
4 *3763:I *3765:I 8.82876e-06
5 *3764:I *3765:I 9.66692e-05
*RES
1 *3764:ZN *3765:I 10.52 
*END

*D_NET *605 0.000531498
*CONN
*I *3766:I I *D gf180mcu_fd_sc_mcu7t5v0__inv_2
*I *3765:ZN O *D gf180mcu_fd_sc_mcu7t5v0__inv_2
*CAP
1 *3766:I 6.81207e-05
2 *3765:ZN 6.81207e-05
3 *3766:I *3767:I 0.000364528
4 *3766:I *3770:I 2.29748e-05
5 *3766:I *3771:I 3.16765e-06
6 *3765:I *3766:I 4.58601e-06
*RES
1 *3765:ZN *3766:I 18.912 
*END

*D_NET *606 0.000824873
*CONN
*I *3767:I I *D gf180mcu_fd_sc_mcu7t5v0__inv_2
*I *3766:ZN O *D gf180mcu_fd_sc_mcu7t5v0__inv_2
*CAP
1 *3767:I 0.000217336
2 *3766:ZN 0.000217336
3 *3767:I *3770:I 0
4 *3767:I *3771:I 2.56734e-05
5 *3766:I *3767:I 0.000364528
*RES
1 *3766:ZN *3767:I 19.824 
*END

*D_NET *607 0.000537282
*CONN
*I *3768:I I *D gf180mcu_fd_sc_mcu7t5v0__inv_2
*I *3767:ZN O *D gf180mcu_fd_sc_mcu7t5v0__inv_2
*CAP
1 *3768:I 0.00025381
2 *3767:ZN 0.00025381
3 *3768:I *3771:I 2.96621e-05
4 *3763:I *3768:I 0
*RES
1 *3767:ZN *3768:I 10.52 
*END

*D_NET *608 0.000169294
*CONN
*I *3769:I I *D gf180mcu_fd_sc_mcu7t5v0__inv_2
*I *3768:ZN O *D gf180mcu_fd_sc_mcu7t5v0__inv_2
*CAP
1 *3769:I 6.21245e-05
2 *3768:ZN 6.21245e-05
3 *3769:I *3771:I 4.50449e-05
*RES
1 *3768:ZN *3769:I 9.532 
*END

*D_NET *609 0.000918913
*CONN
*I *3770:I I *D gf180mcu_fd_sc_mcu7t5v0__inv_2
*I *3769:ZN O *D gf180mcu_fd_sc_mcu7t5v0__inv_2
*CAP
1 *3770:I 0.000275509
2 *3769:ZN 0.000275509
3 *3770:I *3771:I 0.00034492
4 *3770:I *3773:I 0
5 *3766:I *3770:I 2.29748e-05
6 *3767:I *3770:I 0
*RES
1 *3769:ZN *3770:I 19.824 
*END

*D_NET *610 0.00114515
*CONN
*I *3771:I I *D gf180mcu_fd_sc_mcu7t5v0__inv_2
*I *3770:ZN O *D gf180mcu_fd_sc_mcu7t5v0__inv_2
*CAP
1 *3771:I 0.00033528
2 *3770:ZN 0.00033528
3 *3771:I *3773:I 2.6126e-05
4 *3771:I *3776:I 0
5 *3766:I *3771:I 3.16765e-06
6 *3767:I *3771:I 2.56734e-05
7 *3768:I *3771:I 2.96621e-05
8 *3769:I *3771:I 4.50449e-05
9 *3770:I *3771:I 0.00034492
*RES
1 *3770:ZN *3771:I 20.736 
*END

*D_NET *611 0.00073892
*CONN
*I *3772:I I *D gf180mcu_fd_sc_mcu7t5v0__inv_2
*I *3761:ZN O *D gf180mcu_fd_sc_mcu7t5v0__inv_2
*CAP
1 *3772:I 0.000329296
2 *3761:ZN 0.000329296
3 *3772:I *3783:I 5.80636e-05
4 *3750:I *3772:I 2.22657e-05
*RES
1 *3761:ZN *3772:I 19.976 
*END

*D_NET *612 0.000414278
*CONN
*I *3773:I I *D gf180mcu_fd_sc_mcu7t5v0__inv_1
*I *3771:ZN O *D gf180mcu_fd_sc_mcu7t5v0__inv_2
*CAP
1 *3773:I 0.000194076
2 *3771:ZN 0.000194076
3 *3773:I *3775:I 0
4 *3770:I *3773:I 0
5 *3771:I *3773:I 2.6126e-05
*RES
1 *3771:ZN *3773:I 19.216 
*END

*D_NET *613 0.000510712
*CONN
*I *3774:I I *D gf180mcu_fd_sc_mcu7t5v0__inv_1
*I *3773:ZN O *D gf180mcu_fd_sc_mcu7t5v0__inv_1
*CAP
1 *3774:I 0.000154816
2 *3773:ZN 0.000154816
3 *3774:I *3775:I 0.00020108
4 *3774:I *3777:I 0
*RES
1 *3773:ZN *3774:I 10.216 
*END

*D_NET *614 0.000415555
*CONN
*I *3775:I I *D gf180mcu_fd_sc_mcu7t5v0__inv_2
*I *3774:ZN O *D gf180mcu_fd_sc_mcu7t5v0__inv_1
*CAP
1 *3775:I 8.07835e-05
2 *3774:ZN 8.07835e-05
3 *3775:I *3779:I 5.29084e-05
4 *3773:I *3775:I 0
5 *3774:I *3775:I 0.00020108
*RES
1 *3774:ZN *3775:I 9.836 
*END

*D_NET *615 0.000465175
*CONN
*I *3776:I I *D gf180mcu_fd_sc_mcu7t5v0__inv_2
*I *3775:ZN O *D gf180mcu_fd_sc_mcu7t5v0__inv_2
*CAP
1 *3776:I 0.000142783
2 *3775:ZN 0.000142783
3 *3776:I *3779:I 0.000179609
4 *3771:I *3776:I 0
*RES
1 *3775:ZN *3776:I 10.216 
*END

*D_NET *616 0.00114018
*CONN
*I *3777:I I *D gf180mcu_fd_sc_mcu7t5v0__inv_1
*I *3776:ZN O *D gf180mcu_fd_sc_mcu7t5v0__inv_2
*CAP
1 *3777:I 0.000289419
2 *3776:ZN 0.000289419
3 *3777:I *3779:I 0.000291648
4 *3777:I *3780:I 0.000265431
5 *3777:I *3781:I 4.26315e-06
6 *3777:I *3782:I 0
7 *3774:I *3777:I 0
*RES
1 *3776:ZN *3777:I 11.812 
*END

*D_NET *617 0.000185736
*CONN
*I *3778:I I *D gf180mcu_fd_sc_mcu7t5v0__inv_1
*I *3777:ZN O *D gf180mcu_fd_sc_mcu7t5v0__inv_1
*CAP
1 *3778:I 9.2868e-05
2 *3777:ZN 9.2868e-05
*RES
1 *3777:ZN *3778:I 18.684 
*END

*D_NET *618 0.00123606
*CONN
*I *3779:I I *D gf180mcu_fd_sc_mcu7t5v0__inv_1
*I *3778:ZN O *D gf180mcu_fd_sc_mcu7t5v0__inv_1
*CAP
1 *3779:I 0.000355945
2 *3778:ZN 0.000355945
3 *3775:I *3779:I 5.29084e-05
4 *3776:I *3779:I 0.000179609
5 *3777:I *3779:I 0.000291648
*RES
1 *3778:ZN *3779:I 21.192 
*END

*D_NET *619 0.000605599
*CONN
*I *3780:I I *D gf180mcu_fd_sc_mcu7t5v0__inv_1
*I *3779:ZN O *D gf180mcu_fd_sc_mcu7t5v0__inv_1
*CAP
1 *3780:I 0.000149911
2 *3779:ZN 0.000149911
3 *3780:I *3781:I 4.03461e-05
4 *3777:I *3780:I 0.000265431
*RES
1 *3779:ZN *3780:I 10.368 
*END

*D_NET *620 0.000163912
*CONN
*I *3781:I I *D gf180mcu_fd_sc_mcu7t5v0__inv_1
*I *3780:ZN O *D gf180mcu_fd_sc_mcu7t5v0__inv_1
*CAP
1 *3781:I 5.96515e-05
2 *3780:ZN 5.96515e-05
3 *3777:I *3781:I 4.26315e-06
4 *3780:I *3781:I 4.03461e-05
*RES
1 *3780:ZN *3781:I 9.532 
*END

*D_NET *621 0.000501909
*CONN
*I *3782:I I *D gf180mcu_fd_sc_mcu7t5v0__inv_2
*I *3781:ZN O *D gf180mcu_fd_sc_mcu7t5v0__inv_1
*CAP
1 *3782:I 0.000210722
2 *3781:ZN 0.000210722
3 *3593:I *3782:I 7.53241e-05
4 *3594:I *3782:I 5.14116e-06
5 *3777:I *3782:I 0
*RES
1 *3781:ZN *3782:I 10.52 
*END

*D_NET *622 0.000327943
*CONN
*I *3783:I I *D gf180mcu_fd_sc_mcu7t5v0__inv_2
*I *3772:ZN O *D gf180mcu_fd_sc_mcu7t5v0__inv_2
*CAP
1 *3783:I 0.000123185
2 *3772:ZN 0.000123185
3 *3636:I *3783:I 2.35105e-05
4 *3772:I *3783:I 5.80636e-05
*RES
1 *3772:ZN *3783:I 18.912 
*END

*D_NET *625 0.0110152
*CONN
*I *3275:A2 I *D gf180mcu_fd_sc_mcu7t5v0__or3_1
*I *3277:I1 I *D gf180mcu_fd_sc_mcu7t5v0__mux4_1
*I *3129:I I *D gf180mcu_fd_sc_mcu7t5v0__clkinv_1
*I *3420:Q O *D gf180mcu_fd_sc_mcu7t5v0__dffrnq_1
*CAP
1 *3275:A2 9.73742e-05
2 *3277:I1 0.000738251
3 *3129:I 0
4 *3420:Q 0.00104616
5 *625:20 0.00100755
6 *625:14 0.00141283
7 *3277:I1 *3277:I3 0
8 *3277:I1 *875:16 3.50093e-05
9 *625:14 *936:25 0.000756259
10 *3273:I1 *3275:A2 0.00119247
11 *3273:I1 *625:14 0.000941963
12 *3277:I0 *3277:I1 0
13 *3277:S1 *3277:I1 5.76373e-06
14 *3420:RN *625:14 5.76373e-06
15 *3464:D *625:14 0
16 *3481:CLK *3277:I1 0.00011702
17 *3519:D *3277:I1 1.44832e-05
18 *3552:I *625:20 0.000171875
19 *325:12 *625:14 2.57332e-05
20 *325:21 *625:14 5.18011e-05
21 *325:56 *625:14 0.000139318
22 *325:65 *625:14 0.00166442
23 *327:33 *3275:A2 0.000307974
24 *327:39 *3275:A2 0.000424397
25 *327:39 *625:20 0
26 *374:31 *3277:I1 6.3307e-05
27 *379:10 *625:14 6.25211e-05
28 *379:44 *3277:I1 0
29 *379:44 *625:14 0
30 *379:44 *625:20 0
31 *428:8 *3275:A2 0.000204521
32 *428:8 *625:14 0.000528387
*RES
1 *3420:Q *625:14 16.736 
2 *625:14 *625:20 11.204 
3 *625:20 *3129:I 4.5 
4 *625:20 *3277:I1 9.212 
5 *625:14 *3275:A2 7.844 
*END

*D_NET *626 0.000743635
*CONN
*I *3420:D I *D gf180mcu_fd_sc_mcu7t5v0__dffrnq_1
*I *3171:Z O *D gf180mcu_fd_sc_mcu7t5v0__xor2_1
*CAP
1 *3420:D 0.000292579
2 *3171:Z 0.000292579
3 *3421:D *3420:D 1.98468e-05
4 *3421:CLK *3420:D 0.000128373
5 *325:89 *3420:D 1.02578e-05
*RES
1 *3171:Z *3420:D 11.052 
*END

*D_NET *627 0.00171531
*CONN
*I *3523:I I *D gf180mcu_fd_sc_mcu7t5v0__buf_1
*I *3171:A2 I *D gf180mcu_fd_sc_mcu7t5v0__xor2_1
*I *3117:I I *D gf180mcu_fd_sc_mcu7t5v0__clkinv_1
*I *3784:I I *D gf180mcu_fd_sc_mcu7t5v0__inv_1
*I *3421:Q O *D gf180mcu_fd_sc_mcu7t5v0__dffrnq_1
*CAP
1 *3523:I 0
2 *3171:A2 0
3 *3117:I 0
4 *3784:I 0.000133205
5 *3421:Q 0.000167394
6 *627:16 0.000425737
7 *627:14 0.000537968
8 *627:8 0.00041283
9 *3421:RN *627:8 1.5015e-05
10 *3421:CLK *3784:I 0
11 *3421:CLK *627:16 0
12 *325:23 *627:8 1.30476e-05
13 *325:23 *627:14 1.01183e-05
*RES
1 *3421:Q *627:8 5.564 
2 *627:8 *627:14 6.172 
3 *627:14 *627:16 2.052 
4 *627:16 *3784:I 9.836 
5 *627:16 *3117:I 9 
6 *627:14 *3171:A2 9 
7 *627:8 *3523:I 4.5 
*END

*D_NET *628 0.000483414
*CONN
*I *3785:I I *D gf180mcu_fd_sc_mcu7t5v0__inv_1
*I *3926:ZN O *D gf180mcu_fd_sc_mcu7t5v0__inv_1
*CAP
1 *3785:I 6.28284e-05
2 *3926:ZN 6.28284e-05
3 *3785:I *3786:I 0.00027667
4 *3785:I *3926:I 8.10878e-05
*RES
1 *3926:ZN *3785:I 9.912 
*END

*D_NET *629 0.000876188
*CONN
*I *3786:I I *D gf180mcu_fd_sc_mcu7t5v0__inv_1
*I *3785:ZN O *D gf180mcu_fd_sc_mcu7t5v0__inv_1
*CAP
1 *3786:I 0.000215797
2 *3785:ZN 0.000215797
3 *3786:I *3787:I 8.30358e-05
4 *3786:I *3788:I 4.3098e-05
5 *3786:I *3790:I 0
6 *3786:I *3926:I 4.17906e-05
7 *3785:I *3786:I 0.00027667
*RES
1 *3785:ZN *3786:I 11.204 
*END

*D_NET *630 0.000434076
*CONN
*I *3787:I I *D gf180mcu_fd_sc_mcu7t5v0__inv_1
*I *3786:ZN O *D gf180mcu_fd_sc_mcu7t5v0__inv_1
*CAP
1 *3787:I 6.9071e-05
2 *3786:ZN 6.9071e-05
3 *3787:I *3788:I 0.000212898
4 *3786:I *3787:I 8.30358e-05
*RES
1 *3786:ZN *3787:I 9.912 
*END

*D_NET *631 0.000795145
*CONN
*I *3788:I I *D gf180mcu_fd_sc_mcu7t5v0__inv_1
*I *3787:ZN O *D gf180mcu_fd_sc_mcu7t5v0__inv_1
*CAP
1 *3788:I 0.000232461
2 *3787:ZN 0.000232461
3 *3788:I *3789:I 5.32953e-05
4 *3788:I *3790:I 2.09314e-05
5 *3786:I *3788:I 4.3098e-05
6 *3787:I *3788:I 0.000212898
*RES
1 *3787:ZN *3788:I 11.204 
*END

*D_NET *632 0.000473641
*CONN
*I *3789:I I *D gf180mcu_fd_sc_mcu7t5v0__inv_1
*I *3788:ZN O *D gf180mcu_fd_sc_mcu7t5v0__inv_1
*CAP
1 *3789:I 7.18378e-05
2 *3788:ZN 7.18378e-05
3 *3789:I *3790:I 0.00027667
4 *3788:I *3789:I 5.32953e-05
*RES
1 *3788:ZN *3789:I 9.912 
*END

*D_NET *633 0.000866892
*CONN
*I *3790:I I *D gf180mcu_fd_sc_mcu7t5v0__inv_1
*I *3789:ZN O *D gf180mcu_fd_sc_mcu7t5v0__inv_1
*CAP
1 *3790:I 0.000215064
2 *3789:ZN 0.000215064
3 *3790:I *3791:I 8.30358e-05
4 *3790:I *3792:I 5.6126e-05
5 *3786:I *3790:I 0
6 *3788:I *3790:I 2.09314e-05
7 *3789:I *3790:I 0.00027667
*RES
1 *3789:ZN *3790:I 11.204 
*END

*D_NET *634 0.000410342
*CONN
*I *3791:I I *D gf180mcu_fd_sc_mcu7t5v0__inv_1
*I *3790:ZN O *D gf180mcu_fd_sc_mcu7t5v0__inv_1
*CAP
1 *3791:I 7.31605e-05
2 *3790:ZN 7.31605e-05
3 *3791:I *3792:I 0.000180985
4 *3790:I *3791:I 8.30358e-05
*RES
1 *3790:ZN *3791:I 9.912 
*END

*D_NET *635 0.000966766
*CONN
*I *3792:I I *D gf180mcu_fd_sc_mcu7t5v0__inv_1
*I *3791:ZN O *D gf180mcu_fd_sc_mcu7t5v0__inv_1
*CAP
1 *3792:I 0.000211735
2 *3791:ZN 0.000211735
3 *3792:I *3793:I 0.000306185
4 *3792:I *3794:I 0
5 *3790:I *3792:I 5.6126e-05
6 *3791:I *3792:I 0.000180985
*RES
1 *3791:ZN *3792:I 11.508 
*END

*D_NET *636 0.000520345
*CONN
*I *3793:I I *D gf180mcu_fd_sc_mcu7t5v0__inv_1
*I *3792:ZN O *D gf180mcu_fd_sc_mcu7t5v0__inv_1
*CAP
1 *3793:I 8.47472e-05
2 *3792:ZN 8.47472e-05
3 *3793:I *3796:I 4.46661e-05
4 *3792:I *3793:I 0.000306185
*RES
1 *3792:ZN *3793:I 10.064 
*END

*D_NET *637 0.000833893
*CONN
*I *3794:I I *D gf180mcu_fd_sc_mcu7t5v0__inv_1
*I *3793:ZN O *D gf180mcu_fd_sc_mcu7t5v0__inv_1
*CAP
1 *3794:I 0.000215633
2 *3793:ZN 0.000215633
3 *3794:I *3796:I 2.87391e-05
4 *3794:I *3797:I 0.000181557
5 *3794:I *3798:I 0.000192331
6 *3792:I *3794:I 0
*RES
1 *3793:ZN *3794:I 19.672 
*END

*D_NET *638 0.00041096
*CONN
*I *3795:I I *D gf180mcu_fd_sc_mcu7t5v0__inv_1
*I *3927:ZN O *D gf180mcu_fd_sc_mcu7t5v0__inv_1
*CAP
1 *3795:I 0.000162999
2 *3927:ZN 0.000162999
3 *3795:I *3828:I 0
4 *3795:I *3916:I 9.88736e-06
5 *3795:I *3927:I 7.50749e-05
*RES
1 *3927:ZN *3795:I 10.064 
*END

*D_NET *639 0.000427374
*CONN
*I *3796:I I *D gf180mcu_fd_sc_mcu7t5v0__inv_1
*I *3794:ZN O *D gf180mcu_fd_sc_mcu7t5v0__inv_1
*CAP
1 *3796:I 0.000133132
2 *3794:ZN 0.000133132
3 *3796:I *3797:I 7.32209e-05
4 *3796:I *3798:I 1.44832e-05
5 *3793:I *3796:I 4.46661e-05
6 *3794:I *3796:I 2.87391e-05
*RES
1 *3794:ZN *3796:I 10.064 
*END

*D_NET *640 0.00113729
*CONN
*I *3797:I I *D gf180mcu_fd_sc_mcu7t5v0__inv_1
*I *3796:ZN O *D gf180mcu_fd_sc_mcu7t5v0__inv_1
*CAP
1 *3797:I 0.000241511
2 *3796:ZN 0.000241511
3 *3797:I *3798:I 2.14834e-05
4 *3797:I *3799:I 0.000236816
5 *3797:I *3800:I 0.000141194
6 *3794:I *3797:I 0.000181557
7 *3796:I *3797:I 7.32209e-05
*RES
1 *3796:ZN *3797:I 19.9 
*END

*D_NET *641 0.000531915
*CONN
*I *3798:I I *D gf180mcu_fd_sc_mcu7t5v0__inv_1
*I *3797:ZN O *D gf180mcu_fd_sc_mcu7t5v0__inv_1
*CAP
1 *3798:I 0.000144778
2 *3797:ZN 0.000144778
3 *3798:I *3800:I 1.40605e-05
4 *3794:I *3798:I 0.000192331
5 *3796:I *3798:I 1.44832e-05
6 *3797:I *3798:I 2.14834e-05
*RES
1 *3797:ZN *3798:I 10.216 
*END

*D_NET *642 0.000961316
*CONN
*I *3799:I I *D gf180mcu_fd_sc_mcu7t5v0__inv_1
*I *3798:ZN O *D gf180mcu_fd_sc_mcu7t5v0__inv_1
*CAP
1 *3799:I 0.000226342
2 *3798:ZN 0.000226342
3 *3799:I *3800:I 7.3044e-05
4 *3799:I *3801:I 1.44832e-05
5 *3799:I *3802:I 0.00018429
6 *3797:I *3799:I 0.000236816
*RES
1 *3798:ZN *3799:I 19.976 
*END

*D_NET *643 0.000549154
*CONN
*I *3800:I I *D gf180mcu_fd_sc_mcu7t5v0__inv_1
*I *3799:ZN O *D gf180mcu_fd_sc_mcu7t5v0__inv_1
*CAP
1 *3800:I 0.000152114
2 *3799:ZN 0.000152114
3 *3800:I *3801:I 2.14476e-06
4 *3800:I *3802:I 1.44832e-05
5 *3797:I *3800:I 0.000141194
6 *3798:I *3800:I 1.40605e-05
7 *3799:I *3800:I 7.3044e-05
*RES
1 *3799:ZN *3800:I 10.292 
*END

*D_NET *644 0.0013615
*CONN
*I *3801:I I *D gf180mcu_fd_sc_mcu7t5v0__inv_1
*I *3800:ZN O *D gf180mcu_fd_sc_mcu7t5v0__inv_1
*CAP
1 *3801:I 0.000504674
2 *3800:ZN 0.000504674
3 *3801:I *3802:I 0.000218963
4 *3801:I *3803:I 0.000116565
5 *3799:I *3801:I 1.44832e-05
6 *3800:I *3801:I 2.14476e-06
*RES
1 *3800:ZN *3801:I 12.268 
*END

*D_NET *645 0.000639935
*CONN
*I *3802:I I *D gf180mcu_fd_sc_mcu7t5v0__inv_1
*I *3801:ZN O *D gf180mcu_fd_sc_mcu7t5v0__inv_1
*CAP
1 *3802:I 0.0001111
2 *3801:ZN 0.0001111
3 *3799:I *3802:I 0.00018429
4 *3800:I *3802:I 1.44832e-05
5 *3801:I *3802:I 0.000218963
*RES
1 *3801:ZN *3802:I 10.292 
*END

*D_NET *646 0.00121815
*CONN
*I *3803:I I *D gf180mcu_fd_sc_mcu7t5v0__inv_1
*I *3802:ZN O *D gf180mcu_fd_sc_mcu7t5v0__inv_1
*CAP
1 *3803:I 0.000374729
2 *3802:ZN 0.000374729
3 *3803:I *3804:I 0.000118903
4 *3803:I *3805:I 8.95758e-05
5 *3801:I *3803:I 0.000116565
6 *351:40 *3803:I 0.000143649
*RES
1 *3802:ZN *3803:I 29.964 
*END

*D_NET *647 0.00073594
*CONN
*I *3804:I I *D gf180mcu_fd_sc_mcu7t5v0__inv_1
*I *3803:ZN O *D gf180mcu_fd_sc_mcu7t5v0__inv_1
*CAP
1 *3804:I 0.00020954
2 *3803:ZN 0.00020954
3 *3804:I *3805:I 0.000197957
4 *3804:I *3809:I 0
5 *3803:I *3804:I 0.000118903
*RES
1 *3803:ZN *3804:I 19.9 
*END

*D_NET *648 0.000649065
*CONN
*I *3805:I I *D gf180mcu_fd_sc_mcu7t5v0__inv_1
*I *3804:ZN O *D gf180mcu_fd_sc_mcu7t5v0__inv_1
*CAP
1 *3805:I 0.000180766
2 *3804:ZN 0.000180766
3 *3803:I *3805:I 8.95758e-05
4 *3804:I *3805:I 0.000197957
5 *351:40 *3805:I 0
*RES
1 *3804:ZN *3805:I 19.292 
*END

*D_NET *649 0.000337482
*CONN
*I *3806:I I *D gf180mcu_fd_sc_mcu7t5v0__inv_1
*I *3795:ZN O *D gf180mcu_fd_sc_mcu7t5v0__inv_1
*CAP
1 *3806:I 5.10024e-05
2 *3795:ZN 5.10024e-05
3 *3806:I *3817:I 0.000222333
4 *3806:I *3835:I 0
5 *3806:I *3916:I 1.31444e-05
*RES
1 *3795:ZN *3806:I 18.684 
*END

*D_NET *650 0.000239868
*CONN
*I *3807:I I *D gf180mcu_fd_sc_mcu7t5v0__inv_1
*I *3805:ZN O *D gf180mcu_fd_sc_mcu7t5v0__inv_1
*CAP
1 *3807:I 7.15995e-05
2 *3805:ZN 7.15995e-05
3 *3807:I *3808:I 9.66692e-05
*RES
1 *3805:ZN *3807:I 9.684 
*END

*D_NET *651 0.000599847
*CONN
*I *3808:I I *D gf180mcu_fd_sc_mcu7t5v0__inv_1
*I *3807:ZN O *D gf180mcu_fd_sc_mcu7t5v0__inv_1
*CAP
1 *3808:I 0.000251589
2 *3807:ZN 0.000251589
3 *3426:CLK *3808:I 0
4 *3807:I *3808:I 9.66692e-05
*RES
1 *3807:ZN *3808:I 10.672 
*END

*D_NET *652 0.000367115
*CONN
*I *3809:I I *D gf180mcu_fd_sc_mcu7t5v0__inv_1
*I *3808:ZN O *D gf180mcu_fd_sc_mcu7t5v0__inv_1
*CAP
1 *3809:I 0.00016606
2 *3808:ZN 0.00016606
3 *3809:I *3810:I 2.98535e-05
4 *3426:RN *3809:I 5.14116e-06
5 *3804:I *3809:I 0
*RES
1 *3808:ZN *3809:I 10.064 
*END

*D_NET *653 0.000490693
*CONN
*I *3810:I I *D gf180mcu_fd_sc_mcu7t5v0__inv_1
*I *3809:ZN O *D gf180mcu_fd_sc_mcu7t5v0__inv_1
*CAP
1 *3810:I 0.000127283
2 *3809:ZN 0.000127283
3 *3426:RN *3810:I 0.000193942
4 *3426:CLK *3810:I 1.23313e-05
5 *3809:I *3810:I 2.98535e-05
*RES
1 *3809:ZN *3810:I 10.064 
*END

*D_NET *654 0.000943087
*CONN
*I *3811:I I *D gf180mcu_fd_sc_mcu7t5v0__inv_1
*I *3810:ZN O *D gf180mcu_fd_sc_mcu7t5v0__inv_1
*CAP
1 *3811:I 0.000281818
2 *3810:ZN 0.000281818
3 *3811:I *3812:I 8.81047e-05
4 *3811:I *3813:I 5.14116e-06
5 *3426:CLK *3811:I 0.000286206
*RES
1 *3810:ZN *3811:I 11.128 
*END

*D_NET *655 0.000910595
*CONN
*I *3812:I I *D gf180mcu_fd_sc_mcu7t5v0__inv_1
*I *3811:ZN O *D gf180mcu_fd_sc_mcu7t5v0__inv_1
*CAP
1 *3812:I 0.000234974
2 *3811:ZN 0.000234974
3 *3812:I *3813:I 0.000156102
4 *3812:I *3814:I 2.60151e-05
5 *3426:CLK *3812:I 0.000170425
6 *3811:I *3812:I 8.81047e-05
*RES
1 *3811:ZN *3812:I 11.28 
*END

*D_NET *656 0.00113943
*CONN
*I *3813:I I *D gf180mcu_fd_sc_mcu7t5v0__inv_1
*I *3812:ZN O *D gf180mcu_fd_sc_mcu7t5v0__inv_1
*CAP
1 *3813:I 0.000175489
2 *3812:ZN 0.000175489
3 *3813:I *3814:I 0.000597175
4 *3426:D *3813:I 3.00299e-05
5 *3811:I *3813:I 5.14116e-06
6 *3812:I *3813:I 0.000156102
*RES
1 *3812:ZN *3813:I 11.128 
*END

*D_NET *657 0.00135134
*CONN
*I *3814:I I *D gf180mcu_fd_sc_mcu7t5v0__inv_1
*I *3813:ZN O *D gf180mcu_fd_sc_mcu7t5v0__inv_1
*CAP
1 *3814:I 0.000199731
2 *3813:ZN 0.000199731
3 *3814:I *3815:I 1.65306e-05
4 *3814:I *3816:I 0
5 *3426:D *3814:I 0.000312154
6 *3812:I *3814:I 2.60151e-05
7 *3813:I *3814:I 0.000597175
*RES
1 *3813:ZN *3814:I 11.432 
*END

*D_NET *658 0.00109808
*CONN
*I *3815:I I *D gf180mcu_fd_sc_mcu7t5v0__inv_1
*I *3814:ZN O *D gf180mcu_fd_sc_mcu7t5v0__inv_1
*CAP
1 *3815:I 0.000209777
2 *3814:ZN 0.000209777
3 *3815:I *3816:I 0.000605696
4 *3815:I *3818:I 0
5 *3426:D *3815:I 5.63021e-05
6 *3814:I *3815:I 1.65306e-05
*RES
1 *3814:ZN *3815:I 11.128 
*END

*D_NET *659 0.00130322
*CONN
*I *3816:I I *D gf180mcu_fd_sc_mcu7t5v0__inv_1
*I *3815:ZN O *D gf180mcu_fd_sc_mcu7t5v0__inv_1
*CAP
1 *3816:I 0.000348762
2 *3815:ZN 0.000348762
3 *3816:I *3818:I 0
4 *3426:RN *3816:I 0
5 *3814:I *3816:I 0
6 *3815:I *3816:I 0.000605696
*RES
1 *3815:ZN *3816:I 11.888 
*END

*D_NET *660 0.000522444
*CONN
*I *3817:I I *D gf180mcu_fd_sc_mcu7t5v0__inv_1
*I *3806:ZN O *D gf180mcu_fd_sc_mcu7t5v0__inv_1
*CAP
1 *3817:I 0.000129923
2 *3806:ZN 0.000129923
3 *3817:I *3830:I 0
4 *3817:I *3835:I 0
5 *3817:I *3916:I 4.02664e-05
6 *3806:I *3817:I 0.000222333
*RES
1 *3806:ZN *3817:I 19.292 
*END

*D_NET *661 0.000920788
*CONN
*I *3818:I I *D gf180mcu_fd_sc_mcu7t5v0__inv_1
*I *3816:ZN O *D gf180mcu_fd_sc_mcu7t5v0__inv_1
*CAP
1 *3818:I 0.000241394
2 *3816:ZN 0.000241394
3 *3818:I *3819:I 6.05479e-05
4 *3818:I *3855:I 0
5 *3426:RN *3818:I 0.000377452
6 *3815:I *3818:I 0
7 *3816:I *3818:I 0
*RES
1 *3816:ZN *3818:I 10.976 
*END

*D_NET *662 0.000846523
*CONN
*I *3819:I I *D gf180mcu_fd_sc_mcu7t5v0__inv_1
*I *3818:ZN O *D gf180mcu_fd_sc_mcu7t5v0__inv_1
*CAP
1 *3819:I 0.000251463
2 *3818:ZN 0.000251463
3 *3819:I *3855:I 0
4 *3819:I *958:12 5.54886e-05
5 *3426:RN *3819:I 0.00022756
6 *3818:I *3819:I 6.05479e-05
*RES
1 *3818:ZN *3819:I 11.128 
*END

*D_NET *663 0.000198584
*CONN
*I *3820:I I *D gf180mcu_fd_sc_mcu7t5v0__inv_1
*I *3819:ZN O *D gf180mcu_fd_sc_mcu7t5v0__inv_1
*CAP
1 *3820:I 9.9292e-05
2 *3819:ZN 9.9292e-05
3 *3427:CLK *3820:I 0
*RES
1 *3819:ZN *3820:I 18.532 
*END

*D_NET *664 0.000159232
*CONN
*I *3821:I I *D gf180mcu_fd_sc_mcu7t5v0__inv_1
*I *3820:ZN O *D gf180mcu_fd_sc_mcu7t5v0__inv_1
*CAP
1 *3821:I 7.27112e-05
2 *3820:ZN 7.27112e-05
3 *3821:I *958:12 1.38099e-05
*RES
1 *3820:ZN *3821:I 9.532 
*END

*D_NET *665 0.000153083
*CONN
*I *3822:I I *D gf180mcu_fd_sc_mcu7t5v0__inv_1
*I *3821:ZN O *D gf180mcu_fd_sc_mcu7t5v0__inv_1
*CAP
1 *3822:I 7.65413e-05
2 *3821:ZN 7.65413e-05
*RES
1 *3821:ZN *3822:I 9.532 
*END

*D_NET *666 0.000247528
*CONN
*I *3823:I I *D gf180mcu_fd_sc_mcu7t5v0__inv_1
*I *3822:ZN O *D gf180mcu_fd_sc_mcu7t5v0__inv_1
*CAP
1 *3823:I 0.000123764
2 *3822:ZN 0.000123764
3 *3823:I *958:12 0
*RES
1 *3822:ZN *3823:I 9.684 
*END

*D_NET *667 0.000206433
*CONN
*I *3824:I I *D gf180mcu_fd_sc_mcu7t5v0__inv_1
*I *3823:ZN O *D gf180mcu_fd_sc_mcu7t5v0__inv_1
*CAP
1 *3824:I 0.000103217
2 *3823:ZN 0.000103217
*RES
1 *3823:ZN *3824:I 18.684 
*END

*D_NET *668 0.000401292
*CONN
*I *3825:I I *D gf180mcu_fd_sc_mcu7t5v0__inv_1
*I *3824:ZN O *D gf180mcu_fd_sc_mcu7t5v0__inv_1
*CAP
1 *3825:I 0.000197764
2 *3824:ZN 0.000197764
3 *3825:I *3826:I 5.76373e-06
*RES
1 *3824:ZN *3825:I 10.292 
*END

*D_NET *669 0.000153749
*CONN
*I *3826:I I *D gf180mcu_fd_sc_mcu7t5v0__inv_1
*I *3825:ZN O *D gf180mcu_fd_sc_mcu7t5v0__inv_1
*CAP
1 *3826:I 7.39927e-05
2 *3825:ZN 7.39927e-05
3 *3825:I *3826:I 5.76373e-06
*RES
1 *3825:ZN *3826:I 9.532 
*END

*D_NET *670 0.000153083
*CONN
*I *3827:I I *D gf180mcu_fd_sc_mcu7t5v0__inv_1
*I *3826:ZN O *D gf180mcu_fd_sc_mcu7t5v0__inv_1
*CAP
1 *3827:I 7.65413e-05
2 *3826:ZN 7.65413e-05
*RES
1 *3826:ZN *3827:I 9.532 
*END

*D_NET *671 0.00053688
*CONN
*I *3828:I I *D gf180mcu_fd_sc_mcu7t5v0__inv_1
*I *3817:ZN O *D gf180mcu_fd_sc_mcu7t5v0__inv_1
*CAP
1 *3828:I 0.000174864
2 *3817:ZN 0.000174864
3 *3828:I *3833:I 0.000164096
4 *3828:I *3834:I 2.30549e-05
5 *3828:I *3836:I 0
6 *3828:I *3927:I 0
7 *3795:I *3828:I 0
*RES
1 *3817:ZN *3828:I 10.368 
*END

*D_NET *672 0.000247528
*CONN
*I *3829:I I *D gf180mcu_fd_sc_mcu7t5v0__inv_1
*I *3827:ZN O *D gf180mcu_fd_sc_mcu7t5v0__inv_1
*CAP
1 *3829:I 0.000123764
2 *3827:ZN 0.000123764
*RES
1 *3827:ZN *3829:I 9.684 
*END

*D_NET *673 0.00135771
*CONN
*I *3830:I I *D gf180mcu_fd_sc_mcu7t5v0__inv_1
*I *3829:ZN O *D gf180mcu_fd_sc_mcu7t5v0__inv_1
*CAP
1 *3830:I 0.000605356
2 *3829:ZN 0.000605356
3 *3830:I *3831:I 1.61588e-05
4 *3830:I *3832:I 0
5 *3459:CLK *3830:I 0.000130844
6 *3817:I *3830:I 0
*RES
1 *3829:ZN *3830:I 21.42 
*END

*D_NET *674 0.000607959
*CONN
*I *3831:I I *D gf180mcu_fd_sc_mcu7t5v0__inv_1
*I *3830:ZN O *D gf180mcu_fd_sc_mcu7t5v0__inv_1
*CAP
1 *3831:I 0.000263719
2 *3830:ZN 0.000263719
3 *3831:I *3171:A1 0
4 *3831:I *3832:I 5.8599e-05
5 *3831:I *3833:I 0
6 *3831:I *3927:I 5.76373e-06
7 *3831:I *676:6 0
8 *3830:I *3831:I 1.61588e-05
*RES
1 *3830:ZN *3831:I 10.9 
*END

*D_NET *675 0.000785777
*CONN
*I *3832:I I *D gf180mcu_fd_sc_mcu7t5v0__inv_1
*I *3831:ZN O *D gf180mcu_fd_sc_mcu7t5v0__inv_1
*CAP
1 *3832:I 0.00029336
2 *3831:ZN 0.00029336
3 *3832:I *676:6 1.5015e-05
4 *3459:D *3832:I 0.000125443
5 *3830:I *3832:I 0
6 *3831:I *3832:I 5.8599e-05
*RES
1 *3831:ZN *3832:I 11.28 
*END

*D_NET *676 0.000791074
*CONN
*I *3524:I I *D gf180mcu_fd_sc_mcu7t5v0__buf_1
*I *3171:A1 I *D gf180mcu_fd_sc_mcu7t5v0__xor2_1
*I *3832:ZN O *D gf180mcu_fd_sc_mcu7t5v0__inv_1
*CAP
1 *3524:I 2.73362e-05
2 *3171:A1 0.000272556
3 *3832:ZN 8.81374e-05
4 *676:6 0.000388029
5 *3171:A1 *3839:I 0
6 *3459:D *3524:I 0
7 *3831:I *3171:A1 0
8 *3831:I *676:6 0
9 *3832:I *676:6 1.5015e-05
*RES
1 *3832:ZN *676:6 5.184 
2 *676:6 *3171:A1 6.172 
3 *676:6 *3524:I 4.728 
*END

*D_NET *677 0.000892985
*CONN
*I *3833:I I *D gf180mcu_fd_sc_mcu7t5v0__inv_1
*I *3828:ZN O *D gf180mcu_fd_sc_mcu7t5v0__inv_1
*CAP
1 *3833:I 0.000226
2 *3828:ZN 0.000226
3 *3833:I *3834:I 0.000276889
4 *3833:I *3836:I 0
5 *3833:I *3837:I 0
6 *3828:I *3833:I 0.000164096
7 *3831:I *3833:I 0
*RES
1 *3828:ZN *3833:I 11.28 
*END

*D_NET *678 0.000549725
*CONN
*I *3834:I I *D gf180mcu_fd_sc_mcu7t5v0__inv_1
*I *3833:ZN O *D gf180mcu_fd_sc_mcu7t5v0__inv_1
*CAP
1 *3834:I 0.000124891
2 *3833:ZN 0.000124891
3 *3828:I *3834:I 2.30549e-05
4 *3833:I *3834:I 0.000276889
*RES
1 *3833:ZN *3834:I 10.216 
*END

*D_NET *679 0.000461475
*CONN
*I *3835:I I *D gf180mcu_fd_sc_mcu7t5v0__inv_1
*I *3834:ZN O *D gf180mcu_fd_sc_mcu7t5v0__inv_1
*CAP
1 *3835:I 0.000176906
2 *3834:ZN 0.000176906
3 *3835:I *3838:I 0.000107663
4 *3806:I *3835:I 0
5 *3817:I *3835:I 0
*RES
1 *3834:ZN *3835:I 19.292 
*END

*D_NET *680 0.000479043
*CONN
*I *3836:I I *D gf180mcu_fd_sc_mcu7t5v0__inv_1
*I *3835:ZN O *D gf180mcu_fd_sc_mcu7t5v0__inv_1
*CAP
1 *3836:I 0.000228388
2 *3835:ZN 0.000228388
3 *3836:I *3838:I 2.22657e-05
4 *3828:I *3836:I 0
5 *3833:I *3836:I 0
*RES
1 *3835:ZN *3836:I 10.444 
*END

*D_NET *681 0.00020297
*CONN
*I *3837:I I *D gf180mcu_fd_sc_mcu7t5v0__inv_1
*I *3836:ZN O *D gf180mcu_fd_sc_mcu7t5v0__inv_1
*CAP
1 *3837:I 9.45802e-05
2 *3836:ZN 9.45802e-05
3 *3837:I *3841:I 1.38099e-05
4 *3833:I *3837:I 0
*RES
1 *3836:ZN *3837:I 9.684 
*END

*D_NET *682 0.000589245
*CONN
*I *3838:I I *D gf180mcu_fd_sc_mcu7t5v0__inv_1
*I *3837:ZN O *D gf180mcu_fd_sc_mcu7t5v0__inv_1
*CAP
1 *3838:I 0.000109951
2 *3837:ZN 0.000109951
3 *3838:I *3840:I 0.000239414
4 *3835:I *3838:I 0.000107663
5 *3836:I *3838:I 2.22657e-05
*RES
1 *3837:ZN *3838:I 19.52 
*END

*D_NET *683 0.000611317
*CONN
*I *3839:I I *D gf180mcu_fd_sc_mcu7t5v0__inv_1
*I *3784:ZN O *D gf180mcu_fd_sc_mcu7t5v0__inv_1
*CAP
1 *3839:I 0.000256594
2 *3784:ZN 0.000256594
3 *3839:I *3850:I 9.81298e-05
4 *3839:I *3872:I 0
5 *3171:A1 *3839:I 0
6 *3421:D *3839:I 0
*RES
1 *3784:ZN *3839:I 10.976 
*END

*D_NET *684 0.000760447
*CONN
*I *3840:I I *D gf180mcu_fd_sc_mcu7t5v0__inv_1
*I *3838:ZN O *D gf180mcu_fd_sc_mcu7t5v0__inv_1
*CAP
1 *3840:I 0.000260517
2 *3838:ZN 0.000260517
3 *3838:I *3840:I 0.000239414
*RES
1 *3838:ZN *3840:I 19.9 
*END

*D_NET *685 0.000484567
*CONN
*I *3841:I I *D gf180mcu_fd_sc_mcu7t5v0__inv_1
*I *3840:ZN O *D gf180mcu_fd_sc_mcu7t5v0__inv_1
*CAP
1 *3841:I 0.000230663
2 *3840:ZN 0.000230663
3 *3841:I *3842:I 9.43236e-06
4 *3837:I *3841:I 1.38099e-05
*RES
1 *3840:ZN *3841:I 10.368 
*END

*D_NET *686 0.000174547
*CONN
*I *3842:I I *D gf180mcu_fd_sc_mcu7t5v0__inv_1
*I *3841:ZN O *D gf180mcu_fd_sc_mcu7t5v0__inv_1
*CAP
1 *3842:I 8.25573e-05
2 *3841:ZN 8.25573e-05
3 *3841:I *3842:I 9.43236e-06
*RES
1 *3841:ZN *3842:I 9.532 
*END

*D_NET *687 0.000253022
*CONN
*I *3843:I I *D gf180mcu_fd_sc_mcu7t5v0__inv_1
*I *3842:ZN O *D gf180mcu_fd_sc_mcu7t5v0__inv_1
*CAP
1 *3843:I 0.000126511
2 *3842:ZN 0.000126511
3 *3843:I *3845:I 0
*RES
1 *3842:ZN *3843:I 9.684 
*END

*D_NET *688 0.000757319
*CONN
*I *3844:I I *D gf180mcu_fd_sc_mcu7t5v0__inv_1
*I *3843:ZN O *D gf180mcu_fd_sc_mcu7t5v0__inv_1
*CAP
1 *3844:I 0.000283014
2 *3843:ZN 0.000283014
3 *3844:I *3845:I 0.000191292
*RES
1 *3843:ZN *3844:I 19.824 
*END

*D_NET *689 0.000430834
*CONN
*I *3845:I I *D gf180mcu_fd_sc_mcu7t5v0__inv_1
*I *3844:ZN O *D gf180mcu_fd_sc_mcu7t5v0__inv_1
*CAP
1 *3845:I 0.000112263
2 *3844:ZN 0.000112263
3 *3845:I *3846:I 1.5015e-05
4 *3843:I *3845:I 0
5 *3844:I *3845:I 0.000191292
*RES
1 *3844:ZN *3845:I 9.912 
*END

*D_NET *690 0.000224093
*CONN
*I *3846:I I *D gf180mcu_fd_sc_mcu7t5v0__inv_1
*I *3845:ZN O *D gf180mcu_fd_sc_mcu7t5v0__inv_1
*CAP
1 *3846:I 0.000104539
2 *3845:ZN 0.000104539
3 *3845:I *3846:I 1.5015e-05
*RES
1 *3845:ZN *3846:I 9.76 
*END

*D_NET *691 0.000153083
*CONN
*I *3847:I I *D gf180mcu_fd_sc_mcu7t5v0__inv_1
*I *3846:ZN O *D gf180mcu_fd_sc_mcu7t5v0__inv_1
*CAP
1 *3847:I 7.65413e-05
2 *3846:ZN 7.65413e-05
*RES
1 *3846:ZN *3847:I 9.532 
*END

*D_NET *692 0.000153083
*CONN
*I *3848:I I *D gf180mcu_fd_sc_mcu7t5v0__inv_1
*I *3847:ZN O *D gf180mcu_fd_sc_mcu7t5v0__inv_1
*CAP
1 *3848:I 7.65413e-05
2 *3847:ZN 7.65413e-05
*RES
1 *3847:ZN *3848:I 9.532 
*END

*D_NET *693 0.000234647
*CONN
*I *3849:I I *D gf180mcu_fd_sc_mcu7t5v0__inv_1
*I *3848:ZN O *D gf180mcu_fd_sc_mcu7t5v0__inv_1
*CAP
1 *3849:I 6.47711e-05
2 *3848:ZN 6.47711e-05
3 *3849:I *3851:I 0.000105105
4 *3849:I *3852:I 0
*RES
1 *3848:ZN *3849:I 9.684 
*END

*D_NET *694 0.000264332
*CONN
*I *3850:I I *D gf180mcu_fd_sc_mcu7t5v0__inv_1
*I *3839:ZN O *D gf180mcu_fd_sc_mcu7t5v0__inv_1
*CAP
1 *3850:I 3.05487e-05
2 *3839:ZN 3.05487e-05
3 *3850:I *3861:I 0.000105105
4 *3850:I *3883:I 0
5 *3839:I *3850:I 9.81298e-05
*RES
1 *3839:ZN *3850:I 9.684 
*END

*D_NET *695 0.000485507
*CONN
*I *3851:I I *D gf180mcu_fd_sc_mcu7t5v0__inv_1
*I *3849:ZN O *D gf180mcu_fd_sc_mcu7t5v0__inv_1
*CAP
1 *3851:I 0.000175792
2 *3849:ZN 0.000175792
3 *3851:I *3852:I 2.88187e-05
4 *3849:I *3851:I 0.000105105
*RES
1 *3849:ZN *3851:I 10.368 
*END

*D_NET *696 0.000156415
*CONN
*I *3852:I I *D gf180mcu_fd_sc_mcu7t5v0__inv_1
*I *3851:ZN O *D gf180mcu_fd_sc_mcu7t5v0__inv_1
*CAP
1 *3852:I 6.37983e-05
2 *3851:ZN 6.37983e-05
3 *3849:I *3852:I 0
4 *3851:I *3852:I 2.88187e-05
*RES
1 *3851:ZN *3852:I 9.532 
*END

*D_NET *697 0.000153083
*CONN
*I *3853:I I *D gf180mcu_fd_sc_mcu7t5v0__inv_1
*I *3852:ZN O *D gf180mcu_fd_sc_mcu7t5v0__inv_1
*CAP
1 *3853:I 7.65413e-05
2 *3852:ZN 7.65413e-05
*RES
1 *3852:ZN *3853:I 9.532 
*END

*D_NET *698 0.000153083
*CONN
*I *3854:I I *D gf180mcu_fd_sc_mcu7t5v0__inv_1
*I *3853:ZN O *D gf180mcu_fd_sc_mcu7t5v0__inv_1
*CAP
1 *3854:I 7.65413e-05
2 *3853:ZN 7.65413e-05
*RES
1 *3853:ZN *3854:I 9.532 
*END

*D_NET *699 0.000234647
*CONN
*I *3855:I I *D gf180mcu_fd_sc_mcu7t5v0__inv_1
*I *3854:ZN O *D gf180mcu_fd_sc_mcu7t5v0__inv_1
*CAP
1 *3855:I 6.47711e-05
2 *3854:ZN 6.47711e-05
3 *3855:I *3856:I 0.000105105
4 *3855:I *3857:I 0
5 *3818:I *3855:I 0
6 *3819:I *3855:I 0
*RES
1 *3854:ZN *3855:I 9.684 
*END

*D_NET *700 0.00044177
*CONN
*I *3856:I I *D gf180mcu_fd_sc_mcu7t5v0__inv_1
*I *3855:ZN O *D gf180mcu_fd_sc_mcu7t5v0__inv_1
*CAP
1 *3856:I 0.000153923
2 *3855:ZN 0.000153923
3 *3856:I *3857:I 2.88187e-05
4 *3855:I *3856:I 0.000105105
*RES
1 *3855:ZN *3856:I 10.216 
*END

*D_NET *701 0.000156415
*CONN
*I *3857:I I *D gf180mcu_fd_sc_mcu7t5v0__inv_1
*I *3856:ZN O *D gf180mcu_fd_sc_mcu7t5v0__inv_1
*CAP
1 *3857:I 6.37983e-05
2 *3856:ZN 6.37983e-05
3 *3563:I *3857:I 0
4 *3855:I *3857:I 0
5 *3856:I *3857:I 2.88187e-05
*RES
1 *3856:ZN *3857:I 9.532 
*END

*D_NET *702 0.000240558
*CONN
*I *3858:I I *D gf180mcu_fd_sc_mcu7t5v0__inv_1
*I *3857:ZN O *D gf180mcu_fd_sc_mcu7t5v0__inv_1
*CAP
1 *3858:I 0.000120279
2 *3857:ZN 0.000120279
3 *3563:I *3858:I 0
*RES
1 *3857:ZN *3858:I 9.836 
*END

*D_NET *703 0.000153083
*CONN
*I *3859:I I *D gf180mcu_fd_sc_mcu7t5v0__inv_1
*I *3858:ZN O *D gf180mcu_fd_sc_mcu7t5v0__inv_1
*CAP
1 *3859:I 7.65413e-05
2 *3858:ZN 7.65413e-05
*RES
1 *3858:ZN *3859:I 9.532 
*END

*D_NET *704 0.000172318
*CONN
*I *3860:I I *D gf180mcu_fd_sc_mcu7t5v0__inv_1
*I *3859:ZN O *D gf180mcu_fd_sc_mcu7t5v0__inv_1
*CAP
1 *3860:I 8.6159e-05
2 *3859:ZN 8.6159e-05
*RES
1 *3859:ZN *3860:I 18.532 
*END

*D_NET *705 0.000440437
*CONN
*I *3861:I I *D gf180mcu_fd_sc_mcu7t5v0__inv_1
*I *3850:ZN O *D gf180mcu_fd_sc_mcu7t5v0__inv_1
*CAP
1 *3861:I 0.00015902
2 *3850:ZN 0.00015902
3 *3861:I *3883:I 1.72912e-05
4 *3850:I *3861:I 0.000105105
*RES
1 *3850:ZN *3861:I 10.216 
*END

*D_NET *706 0.000153083
*CONN
*I *3862:I I *D gf180mcu_fd_sc_mcu7t5v0__inv_1
*I *3860:ZN O *D gf180mcu_fd_sc_mcu7t5v0__inv_1
*CAP
1 *3862:I 7.65413e-05
2 *3860:ZN 7.65413e-05
*RES
1 *3860:ZN *3862:I 9.532 
*END

*D_NET *707 0.000153083
*CONN
*I *3863:I I *D gf180mcu_fd_sc_mcu7t5v0__inv_1
*I *3862:ZN O *D gf180mcu_fd_sc_mcu7t5v0__inv_1
*CAP
1 *3863:I 7.65413e-05
2 *3862:ZN 7.65413e-05
*RES
1 *3862:ZN *3863:I 9.532 
*END

*D_NET *708 0.000323332
*CONN
*I *3864:I I *D gf180mcu_fd_sc_mcu7t5v0__inv_1
*I *3863:ZN O *D gf180mcu_fd_sc_mcu7t5v0__inv_1
*CAP
1 *3864:I 0.000150672
2 *3863:ZN 0.000150672
3 *3864:I *3866:I 2.19873e-05
*RES
1 *3863:ZN *3864:I 18.684 
*END

*D_NET *709 0.000462885
*CONN
*I *3865:I I *D gf180mcu_fd_sc_mcu7t5v0__inv_1
*I *3864:ZN O *D gf180mcu_fd_sc_mcu7t5v0__inv_1
*CAP
1 *3865:I 0.000231442
2 *3864:ZN 0.000231442
3 *3865:I *3866:I 0
4 *3426:D *3865:I 0
*RES
1 *3864:ZN *3865:I 10.368 
*END

*D_NET *710 0.000712624
*CONN
*I *3866:I I *D gf180mcu_fd_sc_mcu7t5v0__inv_1
*I *3865:ZN O *D gf180mcu_fd_sc_mcu7t5v0__inv_1
*CAP
1 *3866:I 0.000337368
2 *3865:ZN 0.000337368
3 *3866:I *3868:I 0
4 *3866:I *3869:I 4.89046e-06
5 *3866:I *3871:I 1.10115e-05
6 *3864:I *3866:I 2.19873e-05
7 *3865:I *3866:I 0
*RES
1 *3865:ZN *3866:I 19.824 
*END

*D_NET *711 0.000227939
*CONN
*I *3867:I I *D gf180mcu_fd_sc_mcu7t5v0__inv_1
*I *3866:ZN O *D gf180mcu_fd_sc_mcu7t5v0__inv_1
*CAP
1 *3867:I 0.000105324
2 *3866:ZN 0.000105324
3 *3867:I *3871:I 1.72912e-05
*RES
1 *3866:ZN *3867:I 9.684 
*END

*D_NET *712 0.000935928
*CONN
*I *3868:I I *D gf180mcu_fd_sc_mcu7t5v0__inv_1
*I *3867:ZN O *D gf180mcu_fd_sc_mcu7t5v0__inv_1
*CAP
1 *3868:I 0.000202222
2 *3867:ZN 0.000202222
3 *3868:I *3869:I 0.000495077
4 *3868:I *3870:I 3.64067e-05
5 *3866:I *3868:I 0
*RES
1 *3867:ZN *3868:I 19.672 
*END

*D_NET *713 0.00119633
*CONN
*I *3869:I I *D gf180mcu_fd_sc_mcu7t5v0__inv_1
*I *3868:ZN O *D gf180mcu_fd_sc_mcu7t5v0__inv_1
*CAP
1 *3869:I 0.000319856
2 *3868:ZN 0.000319856
3 *3869:I *3870:I 5.66469e-05
4 *3869:I *3871:I 0
5 *3866:I *3869:I 4.89046e-06
6 *3868:I *3869:I 0.000495077
*RES
1 *3868:ZN *3869:I 20.28 
*END

*D_NET *714 0.000809074
*CONN
*I *3870:I I *D gf180mcu_fd_sc_mcu7t5v0__inv_1
*I *3869:ZN O *D gf180mcu_fd_sc_mcu7t5v0__inv_1
*CAP
1 *3870:I 0.000238084
2 *3869:ZN 0.000238084
3 *3870:I *3871:I 4.58601e-06
4 *3870:I *3873:I 0.000202939
5 *3870:I *3874:I 3.23271e-05
6 *3868:I *3870:I 3.64067e-05
7 *3869:I *3870:I 5.66469e-05
*RES
1 *3869:ZN *3870:I 19.596 
*END

*D_NET *715 0.00133046
*CONN
*I *3871:I I *D gf180mcu_fd_sc_mcu7t5v0__inv_1
*I *3870:ZN O *D gf180mcu_fd_sc_mcu7t5v0__inv_1
*CAP
1 *3871:I 0.000276245
2 *3870:ZN 0.000276245
3 *3871:I *3873:I 0.000745084
4 *3866:I *3871:I 1.10115e-05
5 *3867:I *3871:I 1.72912e-05
6 *3869:I *3871:I 0
7 *3870:I *3871:I 4.58601e-06
*RES
1 *3870:ZN *3871:I 11.508 
*END

*D_NET *716 0.000234647
*CONN
*I *3872:I I *D gf180mcu_fd_sc_mcu7t5v0__inv_1
*I *3861:ZN O *D gf180mcu_fd_sc_mcu7t5v0__inv_1
*CAP
1 *3872:I 6.47711e-05
2 *3861:ZN 6.47711e-05
3 *3872:I *3883:I 0.000105105
4 *3839:I *3872:I 0
*RES
1 *3861:ZN *3872:I 9.684 
*END

*D_NET *717 0.00166312
*CONN
*I *3873:I I *D gf180mcu_fd_sc_mcu7t5v0__inv_1
*I *3871:ZN O *D gf180mcu_fd_sc_mcu7t5v0__inv_1
*CAP
1 *3873:I 0.000352547
2 *3871:ZN 0.000352547
3 *3873:I *3874:I 5.76749e-06
4 *3873:I *3875:I 4.2318e-06
5 *3870:I *3873:I 0.000202939
6 *3871:I *3873:I 0.000745084
*RES
1 *3871:ZN *3873:I 12.496 
*END

*D_NET *718 0.000380627
*CONN
*I *3874:I I *D gf180mcu_fd_sc_mcu7t5v0__inv_1
*I *3873:ZN O *D gf180mcu_fd_sc_mcu7t5v0__inv_1
*CAP
1 *3874:I 6.34848e-05
2 *3873:ZN 6.34848e-05
3 *3874:I *3875:I 0.00020108
4 *3874:I *3876:I 1.44832e-05
5 *3870:I *3874:I 3.23271e-05
6 *3873:I *3874:I 5.76749e-06
*RES
1 *3873:ZN *3874:I 9.684 
*END

*D_NET *719 0.00048176
*CONN
*I *3875:I I *D gf180mcu_fd_sc_mcu7t5v0__inv_1
*I *3874:ZN O *D gf180mcu_fd_sc_mcu7t5v0__inv_1
*CAP
1 *3875:I 0.000103578
2 *3874:ZN 0.000103578
3 *3875:I *3876:I 5.48085e-05
4 *3875:I *3877:I 1.44832e-05
5 *3873:I *3875:I 4.2318e-06
6 *3874:I *3875:I 0.00020108
*RES
1 *3874:ZN *3875:I 10.064 
*END

*D_NET *720 0.000371516
*CONN
*I *3876:I I *D gf180mcu_fd_sc_mcu7t5v0__inv_1
*I *3875:ZN O *D gf180mcu_fd_sc_mcu7t5v0__inv_1
*CAP
1 *3876:I 4.33306e-05
2 *3875:ZN 4.33306e-05
3 *3876:I *3877:I 0.00020108
4 *3876:I *3878:I 1.44832e-05
5 *3874:I *3876:I 1.44832e-05
6 *3875:I *3876:I 5.48085e-05
*RES
1 *3875:ZN *3876:I 9.684 
*END

*D_NET *721 0.000480861
*CONN
*I *3877:I I *D gf180mcu_fd_sc_mcu7t5v0__inv_1
*I *3876:ZN O *D gf180mcu_fd_sc_mcu7t5v0__inv_1
*CAP
1 *3877:I 9.8003e-05
2 *3876:ZN 9.8003e-05
3 *3877:I *3878:I 5.48085e-05
4 *3877:I *3879:I 1.44832e-05
5 *3875:I *3877:I 1.44832e-05
6 *3876:I *3877:I 0.00020108
*RES
1 *3876:ZN *3877:I 10.064 
*END

*D_NET *722 0.000371516
*CONN
*I *3878:I I *D gf180mcu_fd_sc_mcu7t5v0__inv_1
*I *3877:ZN O *D gf180mcu_fd_sc_mcu7t5v0__inv_1
*CAP
1 *3878:I 4.33306e-05
2 *3877:ZN 4.33306e-05
3 *3878:I *3879:I 0.00020108
4 *3878:I *3880:I 1.44832e-05
5 *3876:I *3878:I 1.44832e-05
6 *3877:I *3878:I 5.48085e-05
*RES
1 *3877:ZN *3878:I 9.684 
*END

*D_NET *723 0.000480861
*CONN
*I *3879:I I *D gf180mcu_fd_sc_mcu7t5v0__inv_1
*I *3878:ZN O *D gf180mcu_fd_sc_mcu7t5v0__inv_1
*CAP
1 *3879:I 9.8003e-05
2 *3878:ZN 9.8003e-05
3 *3879:I *3880:I 5.48085e-05
4 *3879:I *3881:I 1.44832e-05
5 *3877:I *3879:I 1.44832e-05
6 *3878:I *3879:I 0.00020108
*RES
1 *3878:ZN *3879:I 10.064 
*END

*D_NET *724 0.000371516
*CONN
*I *3880:I I *D gf180mcu_fd_sc_mcu7t5v0__inv_1
*I *3879:ZN O *D gf180mcu_fd_sc_mcu7t5v0__inv_1
*CAP
1 *3880:I 4.33306e-05
2 *3879:ZN 4.33306e-05
3 *3880:I *3881:I 0.00020108
4 *3880:I *3882:I 1.44832e-05
5 *3878:I *3880:I 1.44832e-05
6 *3879:I *3880:I 5.48085e-05
*RES
1 *3879:ZN *3880:I 9.684 
*END

*D_NET *725 0.000524599
*CONN
*I *3881:I I *D gf180mcu_fd_sc_mcu7t5v0__inv_1
*I *3880:ZN O *D gf180mcu_fd_sc_mcu7t5v0__inv_1
*CAP
1 *3881:I 0.000119872
2 *3880:ZN 0.000119872
3 *3881:I *3882:I 5.48085e-05
4 *3881:I *3884:I 1.44832e-05
5 *3879:I *3881:I 1.44832e-05
6 *3880:I *3881:I 0.00020108
*RES
1 *3880:ZN *3881:I 10.216 
*END

*D_NET *726 0.000371516
*CONN
*I *3882:I I *D gf180mcu_fd_sc_mcu7t5v0__inv_1
*I *3881:ZN O *D gf180mcu_fd_sc_mcu7t5v0__inv_1
*CAP
1 *3882:I 4.33306e-05
2 *3881:ZN 4.33306e-05
3 *3882:I *3884:I 0.00020108
4 *3882:I *3886:I 1.44832e-05
5 *3880:I *3882:I 1.44832e-05
6 *3881:I *3882:I 5.48085e-05
*RES
1 *3881:ZN *3882:I 9.684 
*END

*D_NET *727 0.0006575
*CONN
*I *3883:I I *D gf180mcu_fd_sc_mcu7t5v0__inv_1
*I *3872:ZN O *D gf180mcu_fd_sc_mcu7t5v0__inv_1
*CAP
1 *3883:I 0.000175584
2 *3872:ZN 0.000175584
3 *3883:I *3894:I 0.000183936
4 *3850:I *3883:I 0
5 *3861:I *3883:I 1.72912e-05
6 *3872:I *3883:I 0.000105105
*RES
1 *3872:ZN *3883:I 10.748 
*END

*D_NET *728 0.000478269
*CONN
*I *3884:I I *D gf180mcu_fd_sc_mcu7t5v0__inv_1
*I *3882:ZN O *D gf180mcu_fd_sc_mcu7t5v0__inv_1
*CAP
1 *3884:I 0.000103949
2 *3882:ZN 0.000103949
3 *3884:I *3886:I 5.48085e-05
4 *3884:I *3887:I 0
5 *3881:I *3884:I 1.44832e-05
6 *3882:I *3884:I 0.00020108
*RES
1 *3882:ZN *3884:I 10.064 
*END

*D_NET *729 0.000246975
*CONN
*I *3885:I I *D gf180mcu_fd_sc_mcu7t5v0__inv_1
*I *3884:ZN O *D gf180mcu_fd_sc_mcu7t5v0__inv_1
*CAP
1 *3885:I 6.66719e-05
2 *3884:ZN 6.66719e-05
3 *3885:I *3886:I 0.000105105
4 *3885:I *3887:I 8.52631e-06
*RES
1 *3884:ZN *3885:I 9.684 
*END

*D_NET *730 0.000539036
*CONN
*I *3886:I I *D gf180mcu_fd_sc_mcu7t5v0__inv_1
*I *3885:ZN O *D gf180mcu_fd_sc_mcu7t5v0__inv_1
*CAP
1 *3886:I 0.000102785
2 *3885:ZN 0.000102785
3 *3886:I *3887:I 0.00015907
4 *3886:I *3889:I 0
5 *3882:I *3886:I 1.44832e-05
6 *3884:I *3886:I 5.48085e-05
7 *3885:I *3886:I 0.000105105
*RES
1 *3885:ZN *3886:I 10.216 
*END

*D_NET *731 0.000728934
*CONN
*I *3887:I I *D gf180mcu_fd_sc_mcu7t5v0__inv_1
*I *3886:ZN O *D gf180mcu_fd_sc_mcu7t5v0__inv_1
*CAP
1 *3887:I 0.000255218
2 *3886:ZN 0.000255218
3 *3887:I *3889:I 5.09016e-05
4 *3884:I *3887:I 0
5 *3885:I *3887:I 8.52631e-06
6 *3886:I *3887:I 0.00015907
*RES
1 *3886:ZN *3887:I 10.824 
*END

*D_NET *732 0.000270117
*CONN
*I *3888:I I *D gf180mcu_fd_sc_mcu7t5v0__inv_1
*I *3887:ZN O *D gf180mcu_fd_sc_mcu7t5v0__inv_1
*CAP
1 *3888:I 0.000135059
2 *3887:ZN 0.000135059
*RES
1 *3887:ZN *3888:I 18.684 
*END

*D_NET *733 0.000601721
*CONN
*I *3889:I I *D gf180mcu_fd_sc_mcu7t5v0__inv_1
*I *3888:ZN O *D gf180mcu_fd_sc_mcu7t5v0__inv_1
*CAP
1 *3889:I 0.000201602
2 *3888:ZN 0.000201602
3 *3889:I *3890:I 0.000147616
4 *3889:I *3892:I 0
5 *3886:I *3889:I 0
6 *3887:I *3889:I 5.09016e-05
*RES
1 *3888:ZN *3889:I 10.672 
*END

*D_NET *734 0.000723568
*CONN
*I *3890:I I *D gf180mcu_fd_sc_mcu7t5v0__inv_1
*I *3889:ZN O *D gf180mcu_fd_sc_mcu7t5v0__inv_1
*CAP
1 *3890:I 0.000266885
2 *3889:ZN 0.000266885
3 *3890:I *3892:I 4.21821e-05
4 *3889:I *3890:I 0.000147616
*RES
1 *3889:ZN *3890:I 10.824 
*END

*D_NET *735 0.000257967
*CONN
*I *3891:I I *D gf180mcu_fd_sc_mcu7t5v0__inv_1
*I *3890:ZN O *D gf180mcu_fd_sc_mcu7t5v0__inv_1
*CAP
1 *3891:I 7.27613e-05
2 *3890:ZN 7.27613e-05
3 *3891:I *3892:I 9.48587e-05
4 *3891:I *3895:I 1.75856e-05
*RES
1 *3890:ZN *3891:I 9.684 
*END

*D_NET *736 0.00059821
*CONN
*I *3892:I I *D gf180mcu_fd_sc_mcu7t5v0__inv_1
*I *3891:ZN O *D gf180mcu_fd_sc_mcu7t5v0__inv_1
*CAP
1 *3892:I 0.00013174
2 *3891:ZN 0.00013174
3 *3892:I *3893:I 0.000168923
4 *3892:I *3895:I 2.87672e-05
5 *3889:I *3892:I 0
6 *3890:I *3892:I 4.21821e-05
7 *3891:I *3892:I 9.48587e-05
*RES
1 *3891:ZN *3892:I 10.444 
*END

*D_NET *737 0.00110012
*CONN
*I *3893:I I *D gf180mcu_fd_sc_mcu7t5v0__inv_1
*I *3892:ZN O *D gf180mcu_fd_sc_mcu7t5v0__inv_1
*CAP
1 *3893:I 0.000428661
2 *3892:ZN 0.000428661
3 *3893:I *3895:I 4.49126e-05
4 *3893:I *3896:I 2.89664e-05
5 *3892:I *3893:I 0.000168923
*RES
1 *3892:ZN *3893:I 20.736 
*END

*D_NET *738 0.000831081
*CONN
*I *3894:I I *D gf180mcu_fd_sc_mcu7t5v0__inv_1
*I *3883:ZN O *D gf180mcu_fd_sc_mcu7t5v0__inv_1
*CAP
1 *3894:I 0.000277412
2 *3883:ZN 0.000277412
3 *3894:I *3905:I 9.23202e-05
4 *3883:I *3894:I 0.000183936
*RES
1 *3883:ZN *3894:I 11.052 
*END

*D_NET *739 0.000601147
*CONN
*I *3895:I I *D gf180mcu_fd_sc_mcu7t5v0__inv_1
*I *3893:ZN O *D gf180mcu_fd_sc_mcu7t5v0__inv_1
*CAP
1 *3895:I 0.0001346
2 *3893:ZN 0.0001346
3 *3895:I *3896:I 0.000240683
4 *3891:I *3895:I 1.75856e-05
5 *3892:I *3895:I 2.87672e-05
6 *3893:I *3895:I 4.49126e-05
*RES
1 *3893:ZN *3895:I 10.444 
*END

*D_NET *740 0.000995403
*CONN
*I *3896:I I *D gf180mcu_fd_sc_mcu7t5v0__inv_1
*I *3895:ZN O *D gf180mcu_fd_sc_mcu7t5v0__inv_1
*CAP
1 *3896:I 0.000351106
2 *3895:ZN 0.000351106
3 *3896:I *3898:I 2.35413e-05
4 *3893:I *3896:I 2.89664e-05
5 *3895:I *3896:I 0.000240683
*RES
1 *3895:ZN *3896:I 11.812 
*END

*D_NET *741 0.000223839
*CONN
*I *3897:I I *D gf180mcu_fd_sc_mcu7t5v0__inv_1
*I *3896:ZN O *D gf180mcu_fd_sc_mcu7t5v0__inv_1
*CAP
1 *3897:I 7.43823e-05
2 *3896:ZN 7.43823e-05
3 *3897:I *3898:I 7.50749e-05
4 *3897:I *3899:I 0
*RES
1 *3896:ZN *3897:I 9.684 
*END

*D_NET *742 0.000387524
*CONN
*I *3898:I I *D gf180mcu_fd_sc_mcu7t5v0__inv_1
*I *3897:ZN O *D gf180mcu_fd_sc_mcu7t5v0__inv_1
*CAP
1 *3898:I 0.000135808
2 *3897:ZN 0.000135808
3 *3898:I *3899:I 1.72912e-05
4 *3896:I *3898:I 2.35413e-05
5 *3897:I *3898:I 7.50749e-05
*RES
1 *3897:ZN *3898:I 10.064 
*END

*D_NET *743 0.000155082
*CONN
*I *3899:I I *D gf180mcu_fd_sc_mcu7t5v0__inv_1
*I *3898:ZN O *D gf180mcu_fd_sc_mcu7t5v0__inv_1
*CAP
1 *3899:I 6.88955e-05
2 *3898:ZN 6.88955e-05
3 *3897:I *3899:I 0
4 *3898:I *3899:I 1.72912e-05
*RES
1 *3898:ZN *3899:I 9.532 
*END

*D_NET *744 0.000153083
*CONN
*I *3900:I I *D gf180mcu_fd_sc_mcu7t5v0__inv_1
*I *3899:ZN O *D gf180mcu_fd_sc_mcu7t5v0__inv_1
*CAP
1 *3900:I 7.65413e-05
2 *3899:ZN 7.65413e-05
*RES
1 *3899:ZN *3900:I 9.532 
*END

*D_NET *745 0.000158486
*CONN
*I *3901:I I *D gf180mcu_fd_sc_mcu7t5v0__inv_1
*I *3900:ZN O *D gf180mcu_fd_sc_mcu7t5v0__inv_1
*CAP
1 *3901:I 7.17357e-05
2 *3900:ZN 7.17357e-05
3 *3901:I *3903:I 1.5015e-05
4 *3901:I *3909:I 0
*RES
1 *3900:ZN *3901:I 9.532 
*END

*D_NET *746 0.000235314
*CONN
*I *3902:I I *D gf180mcu_fd_sc_mcu7t5v0__inv_1
*I *3901:ZN O *D gf180mcu_fd_sc_mcu7t5v0__inv_1
*CAP
1 *3902:I 6.22225e-05
2 *3901:ZN 6.22225e-05
3 *3902:I *3903:I 0.000105105
4 *3902:I *3906:I 5.76373e-06
5 *3902:I *3909:I 0
*RES
1 *3901:ZN *3902:I 9.684 
*END

*D_NET *747 0.000533297
*CONN
*I *3903:I I *D gf180mcu_fd_sc_mcu7t5v0__inv_1
*I *3902:ZN O *D gf180mcu_fd_sc_mcu7t5v0__inv_1
*CAP
1 *3903:I 0.000191068
2 *3902:ZN 0.000191068
3 *3903:I *3904:I 1.79941e-05
4 *3903:I *3906:I 1.30476e-05
5 *3903:I *3909:I 0
6 *3901:I *3903:I 1.5015e-05
7 *3902:I *3903:I 0.000105105
*RES
1 *3902:ZN *3903:I 10.52 
*END

*D_NET *748 0.000154489
*CONN
*I *3904:I I *D gf180mcu_fd_sc_mcu7t5v0__inv_1
*I *3903:ZN O *D gf180mcu_fd_sc_mcu7t5v0__inv_1
*CAP
1 *3904:I 6.82475e-05
2 *3903:ZN 6.82475e-05
3 *3903:I *3904:I 1.79941e-05
*RES
1 *3903:ZN *3904:I 9.532 
*END

*D_NET *749 0.000218046
*CONN
*I *3905:I I *D gf180mcu_fd_sc_mcu7t5v0__inv_1
*I *3894:ZN O *D gf180mcu_fd_sc_mcu7t5v0__inv_1
*CAP
1 *3905:I 6.28627e-05
2 *3894:ZN 6.28627e-05
3 *3894:I *3905:I 9.23202e-05
*RES
1 *3894:ZN *3905:I 9.684 
*END

*D_NET *750 0.000451427
*CONN
*I *3906:I I *D gf180mcu_fd_sc_mcu7t5v0__inv_1
*I *3904:ZN O *D gf180mcu_fd_sc_mcu7t5v0__inv_1
*CAP
1 *3906:I 0.000216308
2 *3904:ZN 0.000216308
3 *3902:I *3906:I 5.76373e-06
4 *3903:I *3906:I 1.30476e-05
*RES
1 *3904:ZN *3906:I 10.444 
*END

*D_NET *751 0.000247528
*CONN
*I *3907:I I *D gf180mcu_fd_sc_mcu7t5v0__inv_1
*I *3906:ZN O *D gf180mcu_fd_sc_mcu7t5v0__inv_1
*CAP
1 *3907:I 0.000123764
2 *3906:ZN 0.000123764
*RES
1 *3906:ZN *3907:I 9.684 
*END

*D_NET *752 0.000526373
*CONN
*I *3908:I I *D gf180mcu_fd_sc_mcu7t5v0__inv_1
*I *3907:ZN O *D gf180mcu_fd_sc_mcu7t5v0__inv_1
*CAP
1 *3908:I 0.000263186
2 *3907:ZN 0.000263186
*RES
1 *3907:ZN *3908:I 19.596 
*END

*D_NET *753 0.000234647
*CONN
*I *3909:I I *D gf180mcu_fd_sc_mcu7t5v0__inv_1
*I *3908:ZN O *D gf180mcu_fd_sc_mcu7t5v0__inv_1
*CAP
1 *3909:I 6.47711e-05
2 *3908:ZN 6.47711e-05
3 *3909:I *3910:I 0.000105105
4 *3909:I *3911:I 0
5 *3901:I *3909:I 0
6 *3902:I *3909:I 0
7 *3903:I *3909:I 0
*RES
1 *3908:ZN *3909:I 9.684 
*END

*D_NET *754 0.000485507
*CONN
*I *3910:I I *D gf180mcu_fd_sc_mcu7t5v0__inv_1
*I *3909:ZN O *D gf180mcu_fd_sc_mcu7t5v0__inv_1
*CAP
1 *3910:I 0.000175792
2 *3909:ZN 0.000175792
3 *3910:I *3911:I 2.88187e-05
4 *3909:I *3910:I 0.000105105
*RES
1 *3909:ZN *3910:I 10.368 
*END

*D_NET *755 0.000156415
*CONN
*I *3911:I I *D gf180mcu_fd_sc_mcu7t5v0__inv_1
*I *3910:ZN O *D gf180mcu_fd_sc_mcu7t5v0__inv_1
*CAP
1 *3911:I 6.37983e-05
2 *3910:ZN 6.37983e-05
3 *3911:I *3917:I 0
4 *3909:I *3911:I 0
5 *3910:I *3911:I 2.88187e-05
*RES
1 *3910:ZN *3911:I 9.532 
*END

*D_NET *756 0.000532248
*CONN
*I *3912:I I *D gf180mcu_fd_sc_mcu7t5v0__inv_1
*I *3911:ZN O *D gf180mcu_fd_sc_mcu7t5v0__inv_1
*CAP
1 *3912:I 0.000266124
2 *3911:ZN 0.000266124
*RES
1 *3911:ZN *3912:I 10.52 
*END

*D_NET *757 0.000319675
*CONN
*I *3913:I I *D gf180mcu_fd_sc_mcu7t5v0__inv_1
*I *3912:ZN O *D gf180mcu_fd_sc_mcu7t5v0__inv_1
*CAP
1 *3913:I 0.000159838
2 *3912:ZN 0.000159838
3 *3913:I *3917:I 0
*RES
1 *3912:ZN *3913:I 9.836 
*END

*D_NET *758 0.000542836
*CONN
*I *3914:I I *D gf180mcu_fd_sc_mcu7t5v0__inv_1
*I *3913:ZN O *D gf180mcu_fd_sc_mcu7t5v0__inv_1
*CAP
1 *3914:I 0.000262421
2 *3913:ZN 0.000262421
3 *3914:I *3915:I 0
4 *3914:I *3917:I 1.79941e-05
*RES
1 *3913:ZN *3914:I 10.672 
*END

*D_NET *759 0.000929721
*CONN
*I *3915:I I *D gf180mcu_fd_sc_mcu7t5v0__inv_1
*I *3914:ZN O *D gf180mcu_fd_sc_mcu7t5v0__inv_1
*CAP
1 *3915:I 0.000405185
2 *3914:ZN 0.000405185
3 *3915:I *3917:I 6.87947e-05
4 *3915:I *3918:I 4.02421e-05
5 *3915:I *3920:I 1.0313e-05
6 *3915:I *3921:I 0
7 *3914:I *3915:I 0
*RES
1 *3914:ZN *3915:I 11.508 
*END

*D_NET *760 0.000476579
*CONN
*I *3916:I I *D gf180mcu_fd_sc_mcu7t5v0__inv_1
*I *3905:ZN O *D gf180mcu_fd_sc_mcu7t5v0__inv_1
*CAP
1 *3916:I 0.00020664
2 *3905:ZN 0.00020664
3 *3795:I *3916:I 9.88736e-06
4 *3806:I *3916:I 1.31444e-05
5 *3817:I *3916:I 4.02664e-05
*RES
1 *3905:ZN *3916:I 19.368 
*END

*D_NET *761 0.000559496
*CONN
*I *3917:I I *D gf180mcu_fd_sc_mcu7t5v0__inv_1
*I *3915:ZN O *D gf180mcu_fd_sc_mcu7t5v0__inv_1
*CAP
1 *3917:I 0.000236354
2 *3915:ZN 0.000236354
3 *3911:I *3917:I 0
4 *3913:I *3917:I 0
5 *3914:I *3917:I 1.79941e-05
6 *3915:I *3917:I 6.87947e-05
*RES
1 *3915:ZN *3917:I 10.596 
*END

*D_NET *762 0.000670066
*CONN
*I *3918:I I *D gf180mcu_fd_sc_mcu7t5v0__inv_1
*I *3917:ZN O *D gf180mcu_fd_sc_mcu7t5v0__inv_1
*CAP
1 *3918:I 0.000253488
2 *3917:ZN 0.000253488
3 *3918:I *3919:I 0.000115731
4 *3918:I *3920:I 7.11751e-06
5 *3915:I *3918:I 4.02421e-05
*RES
1 *3917:ZN *3918:I 19.672 
*END

*D_NET *763 0.000299412
*CONN
*I *3919:I I *D gf180mcu_fd_sc_mcu7t5v0__inv_1
*I *3918:ZN O *D gf180mcu_fd_sc_mcu7t5v0__inv_1
*CAP
1 *3919:I 4.07445e-05
2 *3918:ZN 4.07445e-05
3 *3919:I *3920:I 0.000102192
4 *3918:I *3919:I 0.000115731
*RES
1 *3918:ZN *3919:I 18.684 
*END

*D_NET *764 0.000796233
*CONN
*I *3920:I I *D gf180mcu_fd_sc_mcu7t5v0__inv_1
*I *3919:ZN O *D gf180mcu_fd_sc_mcu7t5v0__inv_1
*CAP
1 *3920:I 0.000227508
2 *3919:ZN 0.000227508
3 *3920:I *3921:I 0.00020108
4 *3920:I *3922:I 2.05156e-05
5 *3915:I *3920:I 1.0313e-05
6 *3918:I *3920:I 7.11751e-06
7 *3919:I *3920:I 0.000102192
*RES
1 *3919:ZN *3920:I 19.824 
*END

*D_NET *765 0.000447094
*CONN
*I *3921:I I *D gf180mcu_fd_sc_mcu7t5v0__inv_1
*I *3920:ZN O *D gf180mcu_fd_sc_mcu7t5v0__inv_1
*CAP
1 *3921:I 7.24838e-05
2 *3920:ZN 7.24838e-05
3 *3921:I *3922:I 8.95196e-05
4 *3921:I *3923:I 1.15275e-05
5 *3915:I *3921:I 0
6 *3920:I *3921:I 0.00020108
*RES
1 *3920:ZN *3921:I 9.912 
*END

*D_NET *766 0.00039541
*CONN
*I *3922:I I *D gf180mcu_fd_sc_mcu7t5v0__inv_1
*I *3921:ZN O *D gf180mcu_fd_sc_mcu7t5v0__inv_1
*CAP
1 *3922:I 0.000108041
2 *3921:ZN 0.000108041
3 *3922:I *3432:D 0
4 *3922:I *3923:I 5.48085e-05
5 *3922:I *3924:I 1.44832e-05
6 *3920:I *3922:I 2.05156e-05
7 *3921:I *3922:I 8.95196e-05
*RES
1 *3921:ZN *3922:I 10.064 
*END

*D_NET *767 0.000368999
*CONN
*I *3923:I I *D gf180mcu_fd_sc_mcu7t5v0__inv_1
*I *3922:ZN O *D gf180mcu_fd_sc_mcu7t5v0__inv_1
*CAP
1 *3923:I 4.5028e-05
2 *3922:ZN 4.5028e-05
3 *3923:I *3924:I 0.00020108
4 *3923:I *3925:I 1.15275e-05
5 *3921:I *3923:I 1.15275e-05
6 *3922:I *3923:I 5.48085e-05
*RES
1 *3922:ZN *3923:I 9.684 
*END

*D_NET *768 0.000518484
*CONN
*I *3924:I I *D gf180mcu_fd_sc_mcu7t5v0__inv_1
*I *3923:ZN O *D gf180mcu_fd_sc_mcu7t5v0__inv_1
*CAP
1 *3924:I 0.000123423
2 *3923:ZN 0.000123423
3 *3924:I *3925:I 4.45465e-05
4 *3924:I *3926:I 1.15275e-05
5 *3922:I *3924:I 1.44832e-05
6 *3923:I *3924:I 0.00020108
*RES
1 *3923:ZN *3924:I 10.216 
*END

*D_NET *769 0.000474508
*CONN
*I *3925:I I *D gf180mcu_fd_sc_mcu7t5v0__inv_1
*I *3924:ZN O *D gf180mcu_fd_sc_mcu7t5v0__inv_1
*CAP
1 *3925:I 7.0882e-05
2 *3924:ZN 7.0882e-05
3 *3925:I *3926:I 0.00027667
4 *3923:I *3925:I 1.15275e-05
5 *3924:I *3925:I 4.45465e-05
*RES
1 *3924:ZN *3925:I 9.912 
*END

*D_NET *770 0.000732802
*CONN
*I *3926:I I *D gf180mcu_fd_sc_mcu7t5v0__inv_1
*I *3925:ZN O *D gf180mcu_fd_sc_mcu7t5v0__inv_1
*CAP
1 *3926:I 0.000160863
2 *3925:ZN 0.000160863
3 *3785:I *3926:I 8.10878e-05
4 *3786:I *3926:I 4.17906e-05
5 *3924:I *3926:I 1.15275e-05
6 *3925:I *3926:I 0.00027667
*RES
1 *3925:ZN *3926:I 10.748 
*END

*D_NET *771 0.000224506
*CONN
*I *3927:I I *D gf180mcu_fd_sc_mcu7t5v0__inv_1
*I *3916:ZN O *D gf180mcu_fd_sc_mcu7t5v0__inv_1
*CAP
1 *3927:I 7.18337e-05
2 *3916:ZN 7.18337e-05
3 *3795:I *3927:I 7.50749e-05
4 *3828:I *3927:I 0
5 *3831:I *3927:I 5.76373e-06
*RES
1 *3916:ZN *3927:I 9.684 
*END

*D_NET *774 0.00448742
*CONN
*I *3274:A1 I *D gf180mcu_fd_sc_mcu7t5v0__or2_1
*I *3277:I2 I *D gf180mcu_fd_sc_mcu7t5v0__mux4_1
*I *3276:A2 I *D gf180mcu_fd_sc_mcu7t5v0__oai21_1
*I *3422:Q O *D gf180mcu_fd_sc_mcu7t5v0__dffrnq_1
*CAP
1 *3274:A1 0
2 *3277:I2 0.000442187
3 *3276:A2 5.76064e-05
4 *3422:Q 0.000524475
5 *774:23 0.000945077
6 *774:8 0.00108497
7 *3276:A2 *875:8 4.83197e-05
8 *3277:I2 *3277:I3 2.35105e-05
9 *774:8 *3551:I 0
10 *774:8 *875:16 1.783e-05
11 *774:23 *875:16 7.39462e-05
12 *3130:I *774:8 0.00016039
13 *3276:A1 *3276:A2 4.84492e-05
14 *3276:A1 *774:23 8.18373e-05
15 *3480:CLK *774:23 0.000201948
16 *3481:D *774:23 0.000665973
17 *3552:I *3276:A2 9.52854e-05
18 *253:14 *3277:I2 0
19 *343:191 *774:8 1.56182e-05
20 *374:31 *3277:I2 0
*RES
1 *3422:Q *774:8 7.996 
2 *774:8 *3276:A2 14.184 
3 *774:8 *774:23 4.408 
4 *774:23 *3277:I2 16.236 
5 *774:23 *3274:A1 4.5 
*END

*D_NET *775 0.000428836
*CONN
*I *3422:D I *D gf180mcu_fd_sc_mcu7t5v0__dffrnq_1
*I *3172:Z O *D gf180mcu_fd_sc_mcu7t5v0__xor2_1
*CAP
1 *3422:D 0.000214418
2 *3172:Z 0.000214418
3 *3423:CLK *3422:D 0
4 *343:197 *3422:D 0
*RES
1 *3172:Z *3422:D 19.14 
*END

*D_NET *776 0.00304119
*CONN
*I *3172:A2 I *D gf180mcu_fd_sc_mcu7t5v0__xor2_1
*I *3525:I I *D gf180mcu_fd_sc_mcu7t5v0__buf_1
*I *3118:I I *D gf180mcu_fd_sc_mcu7t5v0__clkinv_1
*I *3928:I I *D gf180mcu_fd_sc_mcu7t5v0__inv_1
*I *3423:Q O *D gf180mcu_fd_sc_mcu7t5v0__dffrnq_1
*CAP
1 *3172:A2 0.000158986
2 *3525:I 0
3 *3118:I 3.71185e-05
4 *3928:I 0.000153239
5 *3423:Q 0
6 *776:12 0.000793574
7 *776:6 0.000792399
8 *776:4 0.000348169
9 *3118:I *4018:I 1.15312e-05
10 *3172:A2 *3172:A1 0.00012673
11 *3172:A2 *871:6 4.9333e-05
12 *3928:I *4018:I 2.40867e-05
13 *776:6 *4021:I 0
14 *776:6 *871:6 3.87828e-05
15 *776:12 *4017:I 5.40492e-05
16 *776:12 *4022:I 0.000406043
17 *3419:CLK *776:6 0
18 *3423:RN *3172:A2 4.71447e-05
19 *3423:CLK *776:12 0
*RES
1 *3423:Q *776:4 4.5 
2 *776:4 *776:6 1.14 
3 *776:6 *776:12 12.724 
4 *776:12 *3928:I 5.336 
5 *776:12 *3118:I 4.728 
6 *776:6 *3525:I 4.5 
7 *776:4 *3172:A2 5.944 
*END

*D_NET *777 0.000162486
*CONN
*I *3929:I I *D gf180mcu_fd_sc_mcu7t5v0__inv_1
*I *4023:ZN O *D gf180mcu_fd_sc_mcu7t5v0__inv_1
*CAP
1 *3929:I 5.64441e-05
2 *4023:ZN 5.64441e-05
3 *3929:I *4023:I 4.95974e-05
*RES
1 *4023:ZN *3929:I 9.532 
*END

*D_NET *778 0.000153083
*CONN
*I *3930:I I *D gf180mcu_fd_sc_mcu7t5v0__inv_1
*I *3929:ZN O *D gf180mcu_fd_sc_mcu7t5v0__inv_1
*CAP
1 *3930:I 7.65413e-05
2 *3929:ZN 7.65413e-05
3 *3930:I *3932:I 0
4 *3930:I *4016:I 0
*RES
1 *3929:ZN *3930:I 9.532 
*END

*D_NET *779 0.000235481
*CONN
*I *3931:I I *D gf180mcu_fd_sc_mcu7t5v0__inv_1
*I *3930:ZN O *D gf180mcu_fd_sc_mcu7t5v0__inv_1
*CAP
1 *3931:I 0.000117741
2 *3930:ZN 0.000117741
*RES
1 *3930:ZN *3931:I 18.684 
*END

*D_NET *780 0.000649997
*CONN
*I *3932:I I *D gf180mcu_fd_sc_mcu7t5v0__inv_1
*I *3931:ZN O *D gf180mcu_fd_sc_mcu7t5v0__inv_1
*CAP
1 *3932:I 0.000149095
2 *3931:ZN 0.000149095
3 *3932:I *3933:I 0.000262
4 *3932:I *3934:I 8.98073e-05
5 *3930:I *3932:I 0
*RES
1 *3931:ZN *3932:I 10.748 
*END

*D_NET *781 0.000835948
*CONN
*I *3933:I I *D gf180mcu_fd_sc_mcu7t5v0__inv_1
*I *3932:ZN O *D gf180mcu_fd_sc_mcu7t5v0__inv_1
*CAP
1 *3933:I 0.000242237
2 *3932:ZN 0.000242237
3 *3933:I *3934:I 8.94741e-05
4 *3933:I *4023:I 0
5 *3932:I *3933:I 0.000262
*RES
1 *3932:ZN *3933:I 10.976 
*END

*D_NET *782 0.0011686
*CONN
*I *3934:I I *D gf180mcu_fd_sc_mcu7t5v0__inv_1
*I *3933:ZN O *D gf180mcu_fd_sc_mcu7t5v0__inv_1
*CAP
1 *3934:I 0.000266625
2 *3933:ZN 0.000266625
3 *3934:I *3935:I 0.00045607
4 *3713:I *3934:I 0
5 *3932:I *3934:I 8.98073e-05
6 *3933:I *3934:I 8.94741e-05
*RES
1 *3933:ZN *3934:I 11.66 
*END

*D_NET *783 0.00122159
*CONN
*I *3935:I I *D gf180mcu_fd_sc_mcu7t5v0__inv_1
*I *3934:ZN O *D gf180mcu_fd_sc_mcu7t5v0__inv_1
*CAP
1 *3935:I 0.000282552
2 *3934:ZN 0.000282552
3 *3935:I *3936:I 9.58397e-05
4 *3935:I *3937:I 0.000104577
5 *3713:I *3935:I 0
6 *3934:I *3935:I 0.00045607
*RES
1 *3934:ZN *3935:I 20.812 
*END

*D_NET *784 0.000550901
*CONN
*I *3936:I I *D gf180mcu_fd_sc_mcu7t5v0__inv_1
*I *3935:ZN O *D gf180mcu_fd_sc_mcu7t5v0__inv_1
*CAP
1 *3936:I 0.000162019
2 *3935:ZN 0.000162019
3 *3936:I *3937:I 8.69862e-05
4 *3936:I *3938:I 4.40364e-05
5 *3935:I *3936:I 9.58397e-05
*RES
1 *3935:ZN *3936:I 10.368 
*END

*D_NET *785 0.000987764
*CONN
*I *3937:I I *D gf180mcu_fd_sc_mcu7t5v0__inv_1
*I *3936:ZN O *D gf180mcu_fd_sc_mcu7t5v0__inv_1
*CAP
1 *3937:I 0.000350427
2 *3936:ZN 0.000350427
3 *3937:I *3938:I 2.4397e-05
4 *3937:I *3940:I 7.09482e-05
5 *3935:I *3937:I 0.000104577
6 *3936:I *3937:I 8.69862e-05
*RES
1 *3936:ZN *3937:I 20.128 
*END

*D_NET *786 0.000487989
*CONN
*I *3938:I I *D gf180mcu_fd_sc_mcu7t5v0__inv_1
*I *3937:ZN O *D gf180mcu_fd_sc_mcu7t5v0__inv_1
*CAP
1 *3938:I 0.000183431
2 *3937:ZN 0.000183431
3 *3938:I *3941:I 5.26936e-05
4 *3936:I *3938:I 4.40364e-05
5 *3937:I *3938:I 2.4397e-05
*RES
1 *3937:ZN *3938:I 10.368 
*END

*D_NET *787 0.00040261
*CONN
*I *3939:I I *D gf180mcu_fd_sc_mcu7t5v0__inv_1
*I *3928:ZN O *D gf180mcu_fd_sc_mcu7t5v0__inv_1
*CAP
1 *3939:I 0.000192659
2 *3928:ZN 0.000192659
3 *3939:I *3950:I 1.72912e-05
*RES
1 *3928:ZN *3939:I 10.216 
*END

*D_NET *788 0.00094214
*CONN
*I *3940:I I *D gf180mcu_fd_sc_mcu7t5v0__inv_1
*I *3938:ZN O *D gf180mcu_fd_sc_mcu7t5v0__inv_1
*CAP
1 *3940:I 0.000257108
2 *3938:ZN 0.000257108
3 *3940:I *3941:I 3.23347e-05
4 *3940:I *3942:I 0.00032464
5 *3937:I *3940:I 7.09482e-05
*RES
1 *3938:ZN *3940:I 19.976 
*END

*D_NET *789 0.000506227
*CONN
*I *3941:I I *D gf180mcu_fd_sc_mcu7t5v0__inv_1
*I *3940:ZN O *D gf180mcu_fd_sc_mcu7t5v0__inv_1
*CAP
1 *3941:I 0.00018178
2 *3940:ZN 0.00018178
3 *3941:I *3942:I 5.18736e-05
4 *3941:I *3943:I 5.76373e-06
5 *3938:I *3941:I 5.26936e-05
6 *3940:I *3941:I 3.23347e-05
*RES
1 *3940:ZN *3941:I 10.368 
*END

*D_NET *790 0.00111911
*CONN
*I *3942:I I *D gf180mcu_fd_sc_mcu7t5v0__inv_1
*I *3941:ZN O *D gf180mcu_fd_sc_mcu7t5v0__inv_1
*CAP
1 *3942:I 0.0001794
2 *3941:ZN 0.0001794
3 *3942:I *3943:I 5.1289e-05
4 *3942:I *3945:I 1.5015e-05
5 *3942:I *3946:I 0.000317494
6 *3940:I *3942:I 0.00032464
7 *3941:I *3942:I 5.18736e-05
*RES
1 *3941:ZN *3942:I 11.356 
*END

*D_NET *791 0.000537294
*CONN
*I *3943:I I *D gf180mcu_fd_sc_mcu7t5v0__inv_1
*I *3942:ZN O *D gf180mcu_fd_sc_mcu7t5v0__inv_1
*CAP
1 *3943:I 0.000233443
2 *3942:ZN 0.000233443
3 *3943:I *3944:I 1.33547e-05
4 *3941:I *3943:I 5.76373e-06
5 *3942:I *3943:I 5.1289e-05
*RES
1 *3942:ZN *3943:I 10.444 
*END

*D_NET *792 0.0006708
*CONN
*I *3944:I I *D gf180mcu_fd_sc_mcu7t5v0__inv_1
*I *3943:ZN O *D gf180mcu_fd_sc_mcu7t5v0__inv_1
*CAP
1 *3944:I 0.000328723
2 *3943:ZN 0.000328723
3 *3944:I *3946:I 0
4 *3943:I *3944:I 1.33547e-05
*RES
1 *3943:ZN *3944:I 19.976 
*END

*D_NET *793 0.000579727
*CONN
*I *3945:I I *D gf180mcu_fd_sc_mcu7t5v0__inv_1
*I *3944:ZN O *D gf180mcu_fd_sc_mcu7t5v0__inv_1
*CAP
1 *3945:I 0.000155361
2 *3944:ZN 0.000155361
3 *3945:I *3946:I 0.000186933
4 *3945:I *3947:I 6.70572e-05
5 *3942:I *3945:I 1.5015e-05
*RES
1 *3944:ZN *3945:I 10.596 
*END

*D_NET *794 0.00160286
*CONN
*I *3946:I I *D gf180mcu_fd_sc_mcu7t5v0__inv_1
*I *3945:ZN O *D gf180mcu_fd_sc_mcu7t5v0__inv_1
*CAP
1 *3946:I 0.000503726
2 *3945:ZN 0.000503726
3 *3946:I *3948:I 9.09842e-05
4 *3942:I *3946:I 0.000317494
5 *3944:I *3946:I 0
6 *3945:I *3946:I 0.000186933
*RES
1 *3945:ZN *3946:I 21.496 
*END

*D_NET *795 0.000656355
*CONN
*I *3947:I I *D gf180mcu_fd_sc_mcu7t5v0__inv_1
*I *3946:ZN O *D gf180mcu_fd_sc_mcu7t5v0__inv_1
*CAP
1 *3947:I 0.000173204
2 *3946:ZN 0.000173204
3 *3947:I *3948:I 0.000218989
4 *3947:I *3949:I 2.38995e-05
5 *3945:I *3947:I 6.70572e-05
*RES
1 *3946:ZN *3947:I 10.596 
*END

*D_NET *796 0.00125485
*CONN
*I *3948:I I *D gf180mcu_fd_sc_mcu7t5v0__inv_1
*I *3947:ZN O *D gf180mcu_fd_sc_mcu7t5v0__inv_1
*CAP
1 *3948:I 0.000419617
2 *3947:ZN 0.000419617
3 *3948:I *3949:I 0.000105639
4 *3948:I *3953:I 0
5 *3946:I *3948:I 9.09842e-05
6 *3947:I *3948:I 0.000218989
*RES
1 *3947:ZN *3948:I 20.888 
*END

*D_NET *797 0.000557773
*CONN
*I *3949:I I *D gf180mcu_fd_sc_mcu7t5v0__inv_1
*I *3948:ZN O *D gf180mcu_fd_sc_mcu7t5v0__inv_1
*CAP
1 *3949:I 0.000201276
2 *3948:ZN 0.000201276
3 *3949:I *3951:I 2.56813e-05
4 *3947:I *3949:I 2.38995e-05
5 *3948:I *3949:I 0.000105639
*RES
1 *3948:ZN *3949:I 10.672 
*END

*D_NET *798 0.000236647
*CONN
*I *3950:I I *D gf180mcu_fd_sc_mcu7t5v0__inv_1
*I *3939:ZN O *D gf180mcu_fd_sc_mcu7t5v0__inv_1
*CAP
1 *3950:I 5.71253e-05
2 *3939:ZN 5.71253e-05
3 *3950:I *3961:I 0.000105105
4 *3950:I *3972:I 0
5 *3939:I *3950:I 1.72912e-05
*RES
1 *3939:ZN *3950:I 9.684 
*END

*D_NET *799 0.000157942
*CONN
*I *3951:I I *D gf180mcu_fd_sc_mcu7t5v0__inv_1
*I *3949:ZN O *D gf180mcu_fd_sc_mcu7t5v0__inv_1
*CAP
1 *3951:I 6.25097e-05
2 *3949:ZN 6.25097e-05
3 *3951:I *3953:I 7.24161e-06
4 *3949:I *3951:I 2.56813e-05
*RES
1 *3949:ZN *3951:I 9.532 
*END

*D_NET *800 0.000234647
*CONN
*I *3952:I I *D gf180mcu_fd_sc_mcu7t5v0__inv_1
*I *3951:ZN O *D gf180mcu_fd_sc_mcu7t5v0__inv_1
*CAP
1 *3952:I 6.47711e-05
2 *3951:ZN 6.47711e-05
3 *3952:I *3953:I 0.000105105
4 *3952:I *3956:I 0
*RES
1 *3951:ZN *3952:I 9.684 
*END

*D_NET *801 0.000495924
*CONN
*I *3953:I I *D gf180mcu_fd_sc_mcu7t5v0__inv_1
*I *3952:ZN O *D gf180mcu_fd_sc_mcu7t5v0__inv_1
*CAP
1 *3953:I 0.00016699
2 *3952:ZN 0.00016699
3 *3953:I *3954:I 4.95974e-05
4 *3953:I *3957:I 0
5 *3948:I *3953:I 0
6 *3951:I *3953:I 7.24161e-06
7 *3952:I *3953:I 0.000105105
*RES
1 *3952:ZN *3953:I 10.52 
*END

*D_NET *802 0.000167889
*CONN
*I *3954:I I *D gf180mcu_fd_sc_mcu7t5v0__inv_1
*I *3953:ZN O *D gf180mcu_fd_sc_mcu7t5v0__inv_1
*CAP
1 *3954:I 5.16385e-05
2 *3953:ZN 5.16385e-05
3 *3954:I *3956:I 1.5015e-05
4 *3954:I *3957:I 0
5 *3953:I *3954:I 4.95974e-05
*RES
1 *3953:ZN *3954:I 9.532 
*END

*D_NET *803 0.00021638
*CONN
*I *3955:I I *D gf180mcu_fd_sc_mcu7t5v0__inv_1
*I *3954:ZN O *D gf180mcu_fd_sc_mcu7t5v0__inv_1
*CAP
1 *3955:I 0.00010819
2 *3954:ZN 0.00010819
3 *3955:I *3958:I 0
*RES
1 *3954:ZN *3955:I 18.684 
*END

*D_NET *804 0.00049349
*CONN
*I *3956:I I *D gf180mcu_fd_sc_mcu7t5v0__inv_1
*I *3955:ZN O *D gf180mcu_fd_sc_mcu7t5v0__inv_1
*CAP
1 *3956:I 0.000239238
2 *3955:ZN 0.000239238
3 *3952:I *3956:I 0
4 *3954:I *3956:I 1.5015e-05
*RES
1 *3955:ZN *3956:I 10.52 
*END

*D_NET *805 0.000196821
*CONN
*I *3957:I I *D gf180mcu_fd_sc_mcu7t5v0__inv_1
*I *3956:ZN O *D gf180mcu_fd_sc_mcu7t5v0__inv_1
*CAP
1 *3957:I 9.84103e-05
2 *3956:ZN 9.84103e-05
3 *3953:I *3957:I 0
4 *3954:I *3957:I 0
*RES
1 *3956:ZN *3957:I 9.684 
*END

*D_NET *806 0.000652015
*CONN
*I *3958:I I *D gf180mcu_fd_sc_mcu7t5v0__inv_1
*I *3957:ZN O *D gf180mcu_fd_sc_mcu7t5v0__inv_1
*CAP
1 *3958:I 0.000310563
2 *3957:ZN 0.000310563
3 *3958:I *3960:I 3.08902e-05
4 *3958:I *3962:I 0
5 *3955:I *3958:I 0
*RES
1 *3957:ZN *3958:I 19.976 
*END

*D_NET *807 0.000241189
*CONN
*I *3959:I I *D gf180mcu_fd_sc_mcu7t5v0__inv_1
*I *3958:ZN O *D gf180mcu_fd_sc_mcu7t5v0__inv_1
*CAP
1 *3959:I 6.67569e-05
2 *3958:ZN 6.67569e-05
3 *3959:I *3960:I 0.000105105
4 *3959:I *3963:I 2.57058e-06
*RES
1 *3958:ZN *3959:I 9.684 
*END

*D_NET *808 0.000554584
*CONN
*I *3960:I I *D gf180mcu_fd_sc_mcu7t5v0__inv_1
*I *3959:ZN O *D gf180mcu_fd_sc_mcu7t5v0__inv_1
*CAP
1 *3960:I 0.000186473
2 *3959:ZN 0.000186473
3 *3960:I *3962:I 4.26315e-06
4 *3960:I *3963:I 4.1381e-05
5 *3958:I *3960:I 3.08902e-05
6 *3959:I *3960:I 0.000105105
*RES
1 *3959:ZN *3960:I 10.444 
*END

*D_NET *809 0.000469198
*CONN
*I *3961:I I *D gf180mcu_fd_sc_mcu7t5v0__inv_1
*I *3950:ZN O *D gf180mcu_fd_sc_mcu7t5v0__inv_1
*CAP
1 *3961:I 0.000158717
2 *3950:ZN 0.000158717
3 *3961:I *3972:I 2.88187e-05
4 *3961:I *3983:I 1.52691e-05
5 *3961:I *3994:I 2.57058e-06
6 *3950:I *3961:I 0.000105105
*RES
1 *3950:ZN *3961:I 10.216 
*END

*D_NET *810 0.0013428
*CONN
*I *3962:I I *D gf180mcu_fd_sc_mcu7t5v0__inv_1
*I *3960:ZN O *D gf180mcu_fd_sc_mcu7t5v0__inv_1
*CAP
1 *3962:I 0.000440553
2 *3960:ZN 0.000440553
3 *3962:I *3963:I 0.000225318
4 *3962:I *3964:I 1.44832e-05
5 *3962:I *3965:I 0.000195115
6 *3962:I *3966:I 2.25184e-05
7 *3958:I *3962:I 0
8 *3960:I *3962:I 4.26315e-06
*RES
1 *3960:ZN *3962:I 12.116 
*END

*D_NET *811 0.000550896
*CONN
*I *3963:I I *D gf180mcu_fd_sc_mcu7t5v0__inv_1
*I *3962:ZN O *D gf180mcu_fd_sc_mcu7t5v0__inv_1
*CAP
1 *3963:I 0.000140813
2 *3962:ZN 0.000140813
3 *3959:I *3963:I 2.57058e-06
4 *3960:I *3963:I 4.1381e-05
5 *3962:I *3963:I 0.000225318
*RES
1 *3962:ZN *3963:I 10.292 
*END

*D_NET *812 0.00120006
*CONN
*I *3964:I I *D gf180mcu_fd_sc_mcu7t5v0__inv_1
*I *3963:ZN O *D gf180mcu_fd_sc_mcu7t5v0__inv_1
*CAP
1 *3964:I 0.00030656
2 *3963:ZN 0.00030656
3 *3964:I *3965:I 3.9856e-05
4 *3964:I *3966:I 0.000285989
5 *3964:I *3967:I 0.000205577
6 *3964:I *3968:I 4.10312e-05
7 *3962:I *3964:I 1.44832e-05
*RES
1 *3963:ZN *3964:I 20.432 
*END

*D_NET *813 0.000603178
*CONN
*I *3965:I I *D gf180mcu_fd_sc_mcu7t5v0__inv_1
*I *3964:ZN O *D gf180mcu_fd_sc_mcu7t5v0__inv_1
*CAP
1 *3965:I 9.4283e-05
2 *3964:ZN 9.4283e-05
3 *3965:I *3966:I 0.00016235
4 *3965:I *3969:I 1.72912e-05
5 *3962:I *3965:I 0.000195115
6 *3964:I *3965:I 3.9856e-05
*RES
1 *3964:ZN *3965:I 10.292 
*END

*D_NET *814 0.00134075
*CONN
*I *3966:I I *D gf180mcu_fd_sc_mcu7t5v0__inv_1
*I *3965:ZN O *D gf180mcu_fd_sc_mcu7t5v0__inv_1
*CAP
1 *3966:I 0.000418952
2 *3965:ZN 0.000418952
3 *3966:I *3967:I 1.02578e-05
4 *3966:I *3968:I 2.17248e-05
5 *3962:I *3966:I 2.25184e-05
6 *3964:I *3966:I 0.000285989
7 *3965:I *3966:I 0.00016235
*RES
1 *3965:ZN *3966:I 20.508 
*END

*D_NET *815 0.000627864
*CONN
*I *3967:I I *D gf180mcu_fd_sc_mcu7t5v0__inv_1
*I *3966:ZN O *D gf180mcu_fd_sc_mcu7t5v0__inv_1
*CAP
1 *3967:I 9.50402e-05
2 *3966:ZN 9.50402e-05
3 *3967:I *3968:I 0.000193131
4 *3967:I *3969:I 2.88187e-05
5 *3964:I *3967:I 0.000205577
6 *3966:I *3967:I 1.02578e-05
*RES
1 *3966:ZN *3967:I 10.292 
*END

*D_NET *816 0.00101288
*CONN
*I *3968:I I *D gf180mcu_fd_sc_mcu7t5v0__inv_1
*I *3967:ZN O *D gf180mcu_fd_sc_mcu7t5v0__inv_1
*CAP
1 *3968:I 0.000378495
2 *3967:ZN 0.000378495
3 *3968:I *3969:I 0
4 *3964:I *3968:I 4.10312e-05
5 *3966:I *3968:I 2.17248e-05
6 *3967:I *3968:I 0.000193131
*RES
1 *3967:ZN *3968:I 11.432 
*END

*D_NET *817 0.000917079
*CONN
*I *3969:I I *D gf180mcu_fd_sc_mcu7t5v0__inv_1
*I *3968:ZN O *D gf180mcu_fd_sc_mcu7t5v0__inv_1
*CAP
1 *3969:I 0.000401379
2 *3968:ZN 0.000401379
3 *3969:I *3970:I 2.98421e-05
4 *3969:I *3971:I 3.83684e-05
5 *3965:I *3969:I 1.72912e-05
6 *3967:I *3969:I 2.88187e-05
7 *3968:I *3969:I 0
*RES
1 *3968:ZN *3969:I 11.356 
*END

*D_NET *818 0.000196833
*CONN
*I *3970:I I *D gf180mcu_fd_sc_mcu7t5v0__inv_1
*I *3969:ZN O *D gf180mcu_fd_sc_mcu7t5v0__inv_1
*CAP
1 *3970:I 7.96398e-05
2 *3969:ZN 7.96398e-05
3 *3970:I *3973:I 7.71175e-06
4 *3969:I *3970:I 2.98421e-05
*RES
1 *3969:ZN *3970:I 9.532 
*END

*D_NET *819 0.000265823
*CONN
*I *3971:I I *D gf180mcu_fd_sc_mcu7t5v0__inv_1
*I *3970:ZN O *D gf180mcu_fd_sc_mcu7t5v0__inv_1
*CAP
1 *3971:I 7.97486e-05
2 *3970:ZN 7.97486e-05
3 *3971:I *3973:I 5.64302e-05
4 *3971:I *3976:I 1.15275e-05
5 *3969:I *3971:I 3.83684e-05
*RES
1 *3970:ZN *3971:I 9.684 
*END

*D_NET *820 0.000200153
*CONN
*I *3972:I I *D gf180mcu_fd_sc_mcu7t5v0__inv_1
*I *3961:ZN O *D gf180mcu_fd_sc_mcu7t5v0__inv_1
*CAP
1 *3972:I 8.56673e-05
2 *3961:ZN 8.56673e-05
3 *3972:I *3994:I 0
4 *3972:I *4005:I 0
5 *3950:I *3972:I 0
6 *3961:I *3972:I 2.88187e-05
*RES
1 *3961:ZN *3972:I 9.684 
*END

*D_NET *821 0.000565006
*CONN
*I *3973:I I *D gf180mcu_fd_sc_mcu7t5v0__inv_1
*I *3971:ZN O *D gf180mcu_fd_sc_mcu7t5v0__inv_1
*CAP
1 *3973:I 0.000214299
2 *3971:ZN 0.000214299
3 *3973:I *3974:I 5.26224e-05
4 *3973:I *3975:I 8.52631e-06
5 *3973:I *3976:I 1.11169e-05
6 *3970:I *3973:I 7.71175e-06
7 *3971:I *3973:I 5.64302e-05
*RES
1 *3971:ZN *3973:I 10.672 
*END

*D_NET *822 0.000660987
*CONN
*I *3974:I I *D gf180mcu_fd_sc_mcu7t5v0__inv_1
*I *3973:ZN O *D gf180mcu_fd_sc_mcu7t5v0__inv_1
*CAP
1 *3974:I 0.000106038
2 *3973:ZN 0.000106038
3 *3974:I *3975:I 0.000135135
4 *3974:I *3976:I 0.000168934
5 *3974:I *3977:I 4.03461e-05
6 *3974:I *3978:I 5.18736e-05
7 *3973:I *3974:I 5.26224e-05
*RES
1 *3973:ZN *3974:I 10.672 
*END

*D_NET *823 0.000295609
*CONN
*I *3975:I I *D gf180mcu_fd_sc_mcu7t5v0__inv_1
*I *3974:ZN O *D gf180mcu_fd_sc_mcu7t5v0__inv_1
*CAP
1 *3975:I 2.34215e-05
2 *3974:ZN 2.34215e-05
3 *3975:I *3976:I 0.000105105
4 *3973:I *3975:I 8.52631e-06
5 *3974:I *3975:I 0.000135135
*RES
1 *3974:ZN *3975:I 9.684 
*END

*D_NET *824 0.000856299
*CONN
*I *3976:I I *D gf180mcu_fd_sc_mcu7t5v0__inv_1
*I *3975:ZN O *D gf180mcu_fd_sc_mcu7t5v0__inv_1
*CAP
1 *3976:I 0.000279808
2 *3975:ZN 0.000279808
3 *3971:I *3976:I 1.15275e-05
4 *3973:I *3976:I 1.11169e-05
5 *3974:I *3976:I 0.000168934
6 *3975:I *3976:I 0.000105105
*RES
1 *3975:ZN *3976:I 11.28 
*END

*D_NET *825 0.000157748
*CONN
*I *3977:I I *D gf180mcu_fd_sc_mcu7t5v0__inv_1
*I *3976:ZN O *D gf180mcu_fd_sc_mcu7t5v0__inv_1
*CAP
1 *3977:I 5.87011e-05
2 *3976:ZN 5.87011e-05
3 *3974:I *3977:I 4.03461e-05
*RES
1 *3976:ZN *3977:I 9.532 
*END

*D_NET *826 0.000219031
*CONN
*I *3978:I I *D gf180mcu_fd_sc_mcu7t5v0__inv_1
*I *3977:ZN O *D gf180mcu_fd_sc_mcu7t5v0__inv_1
*CAP
1 *3978:I 6.10561e-05
2 *3977:ZN 6.10561e-05
3 *3978:I *3979:I 4.50449e-05
4 *3974:I *3978:I 5.18736e-05
*RES
1 *3977:ZN *3978:I 9.684 
*END

*D_NET *827 0.000335118
*CONN
*I *3979:I I *D gf180mcu_fd_sc_mcu7t5v0__inv_1
*I *3978:ZN O *D gf180mcu_fd_sc_mcu7t5v0__inv_1
*CAP
1 *3979:I 0.000118404
2 *3978:ZN 0.000118404
3 *3979:I *3981:I 5.3266e-05
4 *3978:I *3979:I 4.50449e-05
*RES
1 *3978:ZN *3979:I 9.912 
*END

*D_NET *828 0.000818647
*CONN
*I *3980:I I *D gf180mcu_fd_sc_mcu7t5v0__inv_1
*I *3979:ZN O *D gf180mcu_fd_sc_mcu7t5v0__inv_1
*CAP
1 *3980:I 0.000210727
2 *3979:ZN 0.000210727
3 *3980:I *3981:I 3.04039e-05
4 *3980:I *3982:I 0.000181659
5 *3980:I *3984:I 0.00018513
*RES
1 *3979:ZN *3980:I 19.672 
*END

*D_NET *829 0.00041925
*CONN
*I *3981:I I *D gf180mcu_fd_sc_mcu7t5v0__inv_1
*I *3980:ZN O *D gf180mcu_fd_sc_mcu7t5v0__inv_1
*CAP
1 *3981:I 0.000121697
2 *3980:ZN 0.000121697
3 *3981:I *3982:I 7.98466e-05
4 *3981:I *3984:I 1.2339e-05
5 *3979:I *3981:I 5.3266e-05
6 *3980:I *3981:I 3.04039e-05
*RES
1 *3980:ZN *3981:I 10.064 
*END

*D_NET *830 0.00091824
*CONN
*I *3982:I I *D gf180mcu_fd_sc_mcu7t5v0__inv_1
*I *3981:ZN O *D gf180mcu_fd_sc_mcu7t5v0__inv_1
*CAP
1 *3982:I 0.000312687
2 *3981:ZN 0.000312687
3 *3982:I *3984:I 3.13603e-05
4 *3980:I *3982:I 0.000181659
5 *3981:I *3982:I 7.98466e-05
*RES
1 *3981:ZN *3982:I 19.748 
*END

*D_NET *831 0.00059351
*CONN
*I *3983:I I *D gf180mcu_fd_sc_mcu7t5v0__inv_1
*I *3972:ZN O *D gf180mcu_fd_sc_mcu7t5v0__inv_1
*CAP
1 *3983:I 0.000289121
2 *3972:ZN 0.000289121
3 *3961:I *3983:I 1.52691e-05
*RES
1 *3972:ZN *3983:I 19.52 
*END

*D_NET *832 0.000484376
*CONN
*I *3984:I I *D gf180mcu_fd_sc_mcu7t5v0__inv_1
*I *3982:ZN O *D gf180mcu_fd_sc_mcu7t5v0__inv_1
*CAP
1 *3984:I 0.000116911
2 *3982:ZN 0.000116911
3 *3984:I *3985:I 2.17248e-05
4 *3980:I *3984:I 0.00018513
5 *3981:I *3984:I 1.2339e-05
6 *3982:I *3984:I 3.13603e-05
*RES
1 *3982:ZN *3984:I 10.064 
*END

*D_NET *833 0.000160857
*CONN
*I *3985:I I *D gf180mcu_fd_sc_mcu7t5v0__inv_1
*I *3984:ZN O *D gf180mcu_fd_sc_mcu7t5v0__inv_1
*CAP
1 *3985:I 5.87036e-05
2 *3984:ZN 5.87036e-05
3 *3985:I *3987:I 2.17248e-05
4 *3984:I *3985:I 2.17248e-05
*RES
1 *3984:ZN *3985:I 9.532 
*END

*D_NET *834 0.000213329
*CONN
*I *3986:I I *D gf180mcu_fd_sc_mcu7t5v0__inv_1
*I *3985:ZN O *D gf180mcu_fd_sc_mcu7t5v0__inv_1
*CAP
1 *3986:I 7.07621e-05
2 *3985:ZN 7.07621e-05
3 *3986:I *3987:I 7.18046e-05
4 *3986:I *3990:I 0
*RES
1 *3985:ZN *3986:I 9.684 
*END

*D_NET *835 0.000641186
*CONN
*I *3987:I I *D gf180mcu_fd_sc_mcu7t5v0__inv_1
*I *3986:ZN O *D gf180mcu_fd_sc_mcu7t5v0__inv_1
*CAP
1 *3987:I 0.000258907
2 *3986:ZN 0.000258907
3 *3987:I *3988:I 2.98421e-05
4 *3987:I *3990:I 0
5 *3985:I *3987:I 2.17248e-05
6 *3986:I *3987:I 7.18046e-05
*RES
1 *3986:ZN *3987:I 10.748 
*END

*D_NET *836 0.000196231
*CONN
*I *3988:I I *D gf180mcu_fd_sc_mcu7t5v0__inv_1
*I *3987:ZN O *D gf180mcu_fd_sc_mcu7t5v0__inv_1
*CAP
1 *3988:I 8.31943e-05
2 *3987:ZN 8.31943e-05
3 *3987:I *3988:I 2.98421e-05
*RES
1 *3987:ZN *3988:I 9.532 
*END

*D_NET *837 0.000251537
*CONN
*I *3989:I I *D gf180mcu_fd_sc_mcu7t5v0__inv_1
*I *3988:ZN O *D gf180mcu_fd_sc_mcu7t5v0__inv_1
*CAP
1 *3989:I 0.000125769
2 *3988:ZN 0.000125769
*RES
1 *3988:ZN *3989:I 18.684 
*END

*D_NET *838 0.000640432
*CONN
*I *3990:I I *D gf180mcu_fd_sc_mcu7t5v0__inv_1
*I *3989:ZN O *D gf180mcu_fd_sc_mcu7t5v0__inv_1
*CAP
1 *3990:I 0.000301851
2 *3989:ZN 0.000301851
3 *3990:I *3992:I 0
4 *3990:I *3993:I 3.67298e-05
5 *3986:I *3990:I 0
6 *3987:I *3990:I 0
*RES
1 *3989:ZN *3990:I 10.748 
*END

*D_NET *839 0.00059967
*CONN
*I *3991:I I *D gf180mcu_fd_sc_mcu7t5v0__inv_1
*I *3990:ZN O *D gf180mcu_fd_sc_mcu7t5v0__inv_1
*CAP
1 *3991:I 0.000299835
2 *3990:ZN 0.000299835
*RES
1 *3990:ZN *3991:I 19.824 
*END

*D_NET *840 0.000887716
*CONN
*I *3992:I I *D gf180mcu_fd_sc_mcu7t5v0__inv_1
*I *3991:ZN O *D gf180mcu_fd_sc_mcu7t5v0__inv_1
*CAP
1 *3992:I 0.00041383
2 *3991:ZN 0.00041383
3 *3992:I *3993:I 1.81888e-05
4 *3992:I *3995:I 2.88187e-05
5 *3992:I *3998:I 1.30476e-05
6 *3992:I *4001:I 0
7 *3990:I *3992:I 0
*RES
1 *3991:ZN *3992:I 11.66 
*END

*D_NET *841 0.000454823
*CONN
*I *3993:I I *D gf180mcu_fd_sc_mcu7t5v0__inv_1
*I *3992:ZN O *D gf180mcu_fd_sc_mcu7t5v0__inv_1
*CAP
1 *3993:I 0.000179779
2 *3992:ZN 0.000179779
3 *3993:I *3995:I 4.03461e-05
4 *3990:I *3993:I 3.67298e-05
5 *3992:I *3993:I 1.81888e-05
*RES
1 *3992:ZN *3993:I 10.368 
*END

*D_NET *842 0.000584328
*CONN
*I *3994:I I *D gf180mcu_fd_sc_mcu7t5v0__inv_1
*I *3983:ZN O *D gf180mcu_fd_sc_mcu7t5v0__inv_1
*CAP
1 *3994:I 0.000290879
2 *3983:ZN 0.000290879
3 *3961:I *3994:I 2.57058e-06
4 *3972:I *3994:I 0
*RES
1 *3983:ZN *3994:I 10.9 
*END

*D_NET *843 0.000161081
*CONN
*I *3995:I I *D gf180mcu_fd_sc_mcu7t5v0__inv_1
*I *3993:ZN O *D gf180mcu_fd_sc_mcu7t5v0__inv_1
*CAP
1 *3995:I 4.59581e-05
2 *3993:ZN 4.59581e-05
3 *3992:I *3995:I 2.88187e-05
4 *3993:I *3995:I 4.03461e-05
*RES
1 *3993:ZN *3995:I 9.532 
*END

*D_NET *844 0.000172318
*CONN
*I *3996:I I *D gf180mcu_fd_sc_mcu7t5v0__inv_1
*I *3995:ZN O *D gf180mcu_fd_sc_mcu7t5v0__inv_1
*CAP
1 *3996:I 8.6159e-05
2 *3995:ZN 8.6159e-05
*RES
1 *3995:ZN *3996:I 18.532 
*END

*D_NET *845 0.000196821
*CONN
*I *3997:I I *D gf180mcu_fd_sc_mcu7t5v0__inv_1
*I *3996:ZN O *D gf180mcu_fd_sc_mcu7t5v0__inv_1
*CAP
1 *3997:I 9.84103e-05
2 *3996:ZN 9.84103e-05
3 *3997:I *3998:I 0
4 *3997:I *4000:I 0
*RES
1 *3996:ZN *3997:I 9.684 
*END

*D_NET *846 0.00045881
*CONN
*I *3998:I I *D gf180mcu_fd_sc_mcu7t5v0__inv_1
*I *3997:ZN O *D gf180mcu_fd_sc_mcu7t5v0__inv_1
*CAP
1 *3998:I 0.000180994
2 *3997:ZN 0.000180994
3 *3998:I *4000:I 2.89664e-05
4 *3998:I *4001:I 5.48085e-05
5 *3992:I *3998:I 1.30476e-05
6 *3997:I *3998:I 0
*RES
1 *3997:ZN *3998:I 10.368 
*END

*D_NET *847 0.0012683
*CONN
*I *3999:I I *D gf180mcu_fd_sc_mcu7t5v0__inv_1
*I *3998:ZN O *D gf180mcu_fd_sc_mcu7t5v0__inv_1
*CAP
1 *3999:I 0.000333324
2 *3998:ZN 0.000333324
3 *3999:I *4000:I 0.00020108
4 *3999:I *4001:I 7.59351e-05
5 *3999:I *4003:I 0.00032464
*RES
1 *3998:ZN *3999:I 20.66 
*END

*D_NET *848 0.000691128
*CONN
*I *4000:I I *D gf180mcu_fd_sc_mcu7t5v0__inv_1
*I *3999:ZN O *D gf180mcu_fd_sc_mcu7t5v0__inv_1
*CAP
1 *4000:I 9.29954e-05
2 *3999:ZN 9.29954e-05
3 *4000:I *4001:I 0.000246125
4 *4000:I *4002:I 2.89664e-05
5 *3997:I *4000:I 0
6 *3998:I *4000:I 2.89664e-05
7 *3999:I *4000:I 0.00020108
*RES
1 *3999:ZN *4000:I 10.368 
*END

*D_NET *849 0.000931684
*CONN
*I *4001:I I *D gf180mcu_fd_sc_mcu7t5v0__inv_1
*I *4000:ZN O *D gf180mcu_fd_sc_mcu7t5v0__inv_1
*CAP
1 *4001:I 0.000254885
2 *4000:ZN 0.000254885
3 *4001:I *4002:I 0
4 *4001:I *4004:I 0
5 *4001:I *4006:I 4.50449e-05
6 *3992:I *4001:I 0
7 *3998:I *4001:I 5.48085e-05
8 *3999:I *4001:I 7.59351e-05
9 *4000:I *4001:I 0.000246125
*RES
1 *4000:ZN *4001:I 11.736 
*END

*D_NET *850 0.000495548
*CONN
*I *4002:I I *D gf180mcu_fd_sc_mcu7t5v0__inv_1
*I *4001:ZN O *D gf180mcu_fd_sc_mcu7t5v0__inv_1
*CAP
1 *4002:I 0.000146644
2 *4001:ZN 0.000146644
3 *4002:I *4003:I 8.95196e-05
4 *4002:I *4004:I 2.89664e-05
5 *4002:I *4006:I 5.48085e-05
6 *4000:I *4002:I 2.89664e-05
7 *4001:I *4002:I 0
*RES
1 *4001:ZN *4002:I 10.368 
*END

*D_NET *851 0.000973988
*CONN
*I *4003:I I *D gf180mcu_fd_sc_mcu7t5v0__inv_1
*I *4002:ZN O *D gf180mcu_fd_sc_mcu7t5v0__inv_1
*CAP
1 *4003:I 0.000271267
2 *4002:ZN 0.000271267
3 *4003:I *4006:I 1.7295e-05
4 *3999:I *4003:I 0.00032464
5 *4002:I *4003:I 8.95196e-05
*RES
1 *4002:ZN *4003:I 19.976 
*END

*D_NET *852 0.000584208
*CONN
*I *4004:I I *D gf180mcu_fd_sc_mcu7t5v0__inv_1
*I *4003:ZN O *D gf180mcu_fd_sc_mcu7t5v0__inv_1
*CAP
1 *4004:I 0.000120684
2 *4003:ZN 0.000120684
3 *4004:I *4006:I 0.000246125
4 *4004:I *4007:I 6.77492e-05
5 *4001:I *4004:I 0
6 *4002:I *4004:I 2.89664e-05
*RES
1 *4003:ZN *4004:I 10.368 
*END

*D_NET *853 0.000154378
*CONN
*I *4005:I I *D gf180mcu_fd_sc_mcu7t5v0__inv_1
*I *3994:ZN O *D gf180mcu_fd_sc_mcu7t5v0__inv_1
*CAP
1 *4005:I 7.35684e-05
2 *3994:ZN 7.35684e-05
3 *4005:I *4023:I 7.24161e-06
4 *3972:I *4005:I 0
*RES
1 *3994:ZN *4005:I 9.532 
*END

*D_NET *854 0.000934877
*CONN
*I *4006:I I *D gf180mcu_fd_sc_mcu7t5v0__inv_1
*I *4004:ZN O *D gf180mcu_fd_sc_mcu7t5v0__inv_1
*CAP
1 *4006:I 0.00026328
2 *4004:ZN 0.00026328
3 *4006:I *4007:I 0
4 *4006:I *4009:I 0
5 *4006:I *4010:I 4.50449e-05
6 *4001:I *4006:I 4.50449e-05
7 *4002:I *4006:I 5.48085e-05
8 *4003:I *4006:I 1.7295e-05
9 *4004:I *4006:I 0.000246125
*RES
1 *4004:ZN *4006:I 11.584 
*END

*D_NET *855 0.000466599
*CONN
*I *4007:I I *D gf180mcu_fd_sc_mcu7t5v0__inv_1
*I *4006:ZN O *D gf180mcu_fd_sc_mcu7t5v0__inv_1
*CAP
1 *4007:I 0.000157537
2 *4006:ZN 0.000157537
3 *4007:I *4009:I 2.89664e-05
4 *4007:I *4010:I 5.48085e-05
5 *4004:I *4007:I 6.77492e-05
6 *4006:I *4007:I 0
*RES
1 *4006:ZN *4007:I 10.368 
*END

*D_NET *856 0.00112857
*CONN
*I *4008:I I *D gf180mcu_fd_sc_mcu7t5v0__inv_1
*I *4007:ZN O *D gf180mcu_fd_sc_mcu7t5v0__inv_1
*CAP
1 *4008:I 0.000297146
2 *4007:ZN 0.000297146
3 *4008:I *4009:I 0.00032464
4 *4008:I *4010:I 6.00599e-05
5 *4008:I *4011:I 0.000149579
*RES
1 *4007:ZN *4008:I 20.584 
*END

*D_NET *857 0.000765829
*CONN
*I *4009:I I *D gf180mcu_fd_sc_mcu7t5v0__inv_1
*I *4008:ZN O *D gf180mcu_fd_sc_mcu7t5v0__inv_1
*CAP
1 *4009:I 8.30486e-05
2 *4008:ZN 8.30486e-05
3 *4009:I *4010:I 0.000246125
4 *4006:I *4009:I 0
5 *4007:I *4009:I 2.89664e-05
6 *4008:I *4009:I 0.00032464
*RES
1 *4008:ZN *4009:I 10.368 
*END

*D_NET *858 0.000932945
*CONN
*I *4010:I I *D gf180mcu_fd_sc_mcu7t5v0__inv_1
*I *4009:ZN O *D gf180mcu_fd_sc_mcu7t5v0__inv_1
*CAP
1 *4010:I 0.000252591
2 *4009:ZN 0.000252591
3 *4010:I *4011:I 2.17248e-05
4 *4010:I *4012:I 0
5 *4006:I *4010:I 4.50449e-05
6 *4007:I *4010:I 5.48085e-05
7 *4008:I *4010:I 6.00599e-05
8 *4009:I *4010:I 0.000246125
*RES
1 *4009:ZN *4010:I 11.584 
*END

*D_NET *859 0.000405567
*CONN
*I *4011:I I *D gf180mcu_fd_sc_mcu7t5v0__inv_1
*I *4010:ZN O *D gf180mcu_fd_sc_mcu7t5v0__inv_1
*CAP
1 *4011:I 0.000114249
2 *4010:ZN 0.000114249
3 *4011:I *4012:I 5.76373e-06
4 *4008:I *4011:I 0.000149579
5 *4010:I *4011:I 2.17248e-05
*RES
1 *4010:ZN *4011:I 10.064 
*END

*D_NET *860 0.000153749
*CONN
*I *4012:I I *D gf180mcu_fd_sc_mcu7t5v0__inv_1
*I *4011:ZN O *D gf180mcu_fd_sc_mcu7t5v0__inv_1
*CAP
1 *4012:I 7.39927e-05
2 *4011:ZN 7.39927e-05
3 *4010:I *4012:I 0
4 *4011:I *4012:I 5.76373e-06
*RES
1 *4011:ZN *4012:I 9.532 
*END

*D_NET *861 0.000153083
*CONN
*I *4013:I I *D gf180mcu_fd_sc_mcu7t5v0__inv_1
*I *4012:ZN O *D gf180mcu_fd_sc_mcu7t5v0__inv_1
*CAP
1 *4013:I 7.65413e-05
2 *4012:ZN 7.65413e-05
*RES
1 *4012:ZN *4013:I 9.532 
*END

*D_NET *862 0.000153083
*CONN
*I *4014:I I *D gf180mcu_fd_sc_mcu7t5v0__inv_1
*I *4013:ZN O *D gf180mcu_fd_sc_mcu7t5v0__inv_1
*CAP
1 *4014:I 7.65413e-05
2 *4013:ZN 7.65413e-05
*RES
1 *4013:ZN *4014:I 9.532 
*END

*D_NET *863 0.000153083
*CONN
*I *4015:I I *D gf180mcu_fd_sc_mcu7t5v0__inv_1
*I *4014:ZN O *D gf180mcu_fd_sc_mcu7t5v0__inv_1
*CAP
1 *4015:I 7.65413e-05
2 *4014:ZN 7.65413e-05
*RES
1 *4014:ZN *4015:I 9.532 
*END

*D_NET *864 0.000234647
*CONN
*I *4016:I I *D gf180mcu_fd_sc_mcu7t5v0__inv_1
*I *4005:ZN O *D gf180mcu_fd_sc_mcu7t5v0__inv_1
*CAP
1 *4016:I 6.47711e-05
2 *4005:ZN 6.47711e-05
3 *4016:I *4023:I 0.000105105
4 *3930:I *4016:I 0
*RES
1 *4005:ZN *4016:I 9.684 
*END

*D_NET *865 0.000373801
*CONN
*I *4017:I I *D gf180mcu_fd_sc_mcu7t5v0__inv_1
*I *4015:ZN O *D gf180mcu_fd_sc_mcu7t5v0__inv_1
*CAP
1 *4017:I 0.000159876
2 *4015:ZN 0.000159876
3 *776:12 *4017:I 5.40492e-05
*RES
1 *4015:ZN *4017:I 19.14 
*END

*D_NET *866 0.000292302
*CONN
*I *4018:I I *D gf180mcu_fd_sc_mcu7t5v0__inv_1
*I *4017:ZN O *D gf180mcu_fd_sc_mcu7t5v0__inv_1
*CAP
1 *4018:I 0.000128342
2 *4017:ZN 0.000128342
3 *3118:I *4018:I 1.15312e-05
4 *3928:I *4018:I 2.40867e-05
*RES
1 *4017:ZN *4018:I 9.684 
*END

*D_NET *867 0.000153083
*CONN
*I *4019:I I *D gf180mcu_fd_sc_mcu7t5v0__inv_1
*I *4018:ZN O *D gf180mcu_fd_sc_mcu7t5v0__inv_1
*CAP
1 *4019:I 7.65413e-05
2 *4018:ZN 7.65413e-05
*RES
1 *4018:ZN *4019:I 9.532 
*END

*D_NET *868 0.000846781
*CONN
*I *4020:I I *D gf180mcu_fd_sc_mcu7t5v0__inv_1
*I *4019:ZN O *D gf180mcu_fd_sc_mcu7t5v0__inv_1
*CAP
1 *4020:I 0.000303901
2 *4019:ZN 0.000303901
3 *4020:I *4021:I 0.000238978
*RES
1 *4019:ZN *4020:I 11.356 
*END

*D_NET *869 0.00045369
*CONN
*I *4021:I I *D gf180mcu_fd_sc_mcu7t5v0__inv_1
*I *4020:ZN O *D gf180mcu_fd_sc_mcu7t5v0__inv_1
*CAP
1 *4021:I 0.000107356
2 *4020:ZN 0.000107356
3 *4020:I *4021:I 0.000238978
4 *776:6 *4021:I 0
*RES
1 *4020:ZN *4021:I 9.912 
*END

*D_NET *870 0.000686269
*CONN
*I *4022:I I *D gf180mcu_fd_sc_mcu7t5v0__inv_1
*I *4021:ZN O *D gf180mcu_fd_sc_mcu7t5v0__inv_1
*CAP
1 *4022:I 0.000135653
2 *4021:ZN 0.000135653
3 *3423:CLK *4022:I 0
4 *3706:I *4022:I 8.92063e-06
5 *776:12 *4022:I 0.000406043
*RES
1 *4021:ZN *4022:I 19.444 
*END

*D_NET *871 0.00140225
*CONN
*I *3526:I I *D gf180mcu_fd_sc_mcu7t5v0__buf_1
*I *3172:A1 I *D gf180mcu_fd_sc_mcu7t5v0__xor2_1
*I *4022:ZN O *D gf180mcu_fd_sc_mcu7t5v0__inv_1
*CAP
1 *3526:I 0
2 *3172:A1 0.000225554
3 *4022:ZN 9.99839e-05
4 *871:6 0.000325537
5 *3172:A2 *3172:A1 0.00012673
6 *3172:A2 *871:6 4.9333e-05
7 *3419:CLK *871:6 8.2746e-05
8 *3423:RN *3172:A1 3.62081e-05
9 *322:55 *3172:A1 0.000153077
10 *322:57 *3172:A1 0.000116986
11 *322:57 *871:6 0.000147313
12 *776:6 *871:6 3.87828e-05
*RES
1 *4022:ZN *871:6 5.64 
2 *871:6 *3172:A1 7.16 
3 *871:6 *3526:I 4.5 
*END

*D_NET *872 0.000495924
*CONN
*I *4023:I I *D gf180mcu_fd_sc_mcu7t5v0__inv_1
*I *4016:ZN O *D gf180mcu_fd_sc_mcu7t5v0__inv_1
*CAP
1 *4023:I 0.00016699
2 *4016:ZN 0.00016699
3 *3929:I *4023:I 4.95974e-05
4 *3933:I *4023:I 0
5 *4005:I *4023:I 7.24161e-06
6 *4016:I *4023:I 0.000105105
*RES
1 *4016:ZN *4023:I 10.52 
*END

*D_NET *875 0.00549303
*CONN
*I *3551:I I *D gf180mcu_fd_sc_mcu7t5v0__dlyc_1
*I *3277:I3 I *D gf180mcu_fd_sc_mcu7t5v0__mux4_1
*I *3274:A2 I *D gf180mcu_fd_sc_mcu7t5v0__or2_1
*I *3424:Q O *D gf180mcu_fd_sc_mcu7t5v0__dffrnq_1
*CAP
1 *3551:I 0.000413282
2 *3277:I3 0.000286894
3 *3274:A2 0
4 *3424:Q 0.00037439
5 *875:16 0.00081578
6 *875:8 0.00131656
7 *3276:A1 *875:16 3.78032e-05
8 *3276:A2 *875:8 4.83197e-05
9 *3277:I1 *3277:I3 0
10 *3277:I1 *875:16 3.50093e-05
11 *3277:I2 *3277:I3 2.35105e-05
12 *3277:S1 *3277:I3 9.88736e-06
13 *3480:CLK *3277:I3 0.000533725
14 *3480:CLK *875:16 0.00026286
15 *3481:D *875:16 0.000136674
16 *3519:D *875:16 0.000715757
17 *3552:I *3551:I 6.31406e-05
18 *3552:I *875:8 4.84399e-05
19 *325:71 *3551:I 3.43264e-05
20 *325:71 *875:8 0.000217662
21 *343:600 *3551:I 1.0313e-05
22 *343:615 *3551:I 1.69174e-05
23 *379:23 *3551:I 0
24 *379:44 *3551:I 0
25 *774:8 *3551:I 0
26 *774:8 *875:16 1.783e-05
27 *774:23 *875:16 7.39462e-05
*RES
1 *3424:Q *875:8 12.268 
2 *875:8 *875:16 9.288 
3 *875:16 *3274:A2 4.5 
4 *875:16 *3277:I3 15.932 
5 *875:8 *3551:I 11.736 
*END

*D_NET *876 0.000543567
*CONN
*I *3424:D I *D gf180mcu_fd_sc_mcu7t5v0__dffrnq_1
*I *3173:Z O *D gf180mcu_fd_sc_mcu7t5v0__xor2_1
*CAP
1 *3424:D 0.000243334
2 *3173:Z 0.000243334
3 *3424:D *3173:A1 0
4 *3424:D *3173:A2 0
5 *3424:D *919:6 3.07734e-05
6 *3479:CLK *3424:D 2.6126e-05
*RES
1 *3173:Z *3424:D 10.672 
*END

*D_NET *877 0.00398987
*CONN
*I *3173:A2 I *D gf180mcu_fd_sc_mcu7t5v0__xor2_1
*I *3119:I I *D gf180mcu_fd_sc_mcu7t5v0__clkinv_1
*I *4024:I I *D gf180mcu_fd_sc_mcu7t5v0__inv_1
*I *3527:I I *D gf180mcu_fd_sc_mcu7t5v0__buf_1
*I *3425:Q O *D gf180mcu_fd_sc_mcu7t5v0__dffrnq_1
*CAP
1 *3173:A2 0.000276478
2 *3119:I 0
3 *4024:I 0.000362692
4 *3527:I 4.242e-05
5 *3425:Q 0
6 *877:19 0.000969648
7 *877:8 0.000897802
8 *877:4 0.000524904
9 *3173:A2 *3173:A1 3.07734e-05
10 *3173:A2 *3528:I 4.60244e-05
11 *4024:I *4035:I 4.6818e-05
12 *877:8 *919:6 2.88187e-05
13 *3423:RN *3527:I 0
14 *3423:RN *877:8 0
15 *3423:CLK *877:19 0
16 *3424:D *3173:A2 0
17 *3425:D *4024:I 0
18 *3425:RN *3173:A2 0.000469567
19 *3425:RN *877:8 1.15312e-05
20 *3425:RN *877:19 3.02683e-05
21 *3425:CLK *4024:I 5.76373e-06
22 *322:55 *3173:A2 3.08777e-05
23 *343:197 *3173:A2 0.00021548
*RES
1 *3425:Q *877:4 4.5 
2 *877:4 *877:8 1.52 
3 *877:8 *3527:I 4.728 
4 *877:8 *877:19 8.984 
5 *877:19 *4024:I 11.128 
6 *877:19 *3119:I 9 
7 *877:4 *3173:A2 16.236 
*END

*D_NET *878 0.000994568
*CONN
*I *4025:I I *D gf180mcu_fd_sc_mcu7t5v0__inv_1
*I *4071:ZN O *D gf180mcu_fd_sc_mcu7t5v0__inv_1
*CAP
1 *4025:I 0.000380719
2 *4071:ZN 0.000380719
3 *4025:I *4026:I 7.10994e-05
4 *4025:I *4027:I 1.55277e-05
5 *4025:I *4029:I 0.000146503
6 *4025:I *4069:I 0
*RES
1 *4071:ZN *4025:I 20.584 
*END

*D_NET *879 0.000525501
*CONN
*I *4026:I I *D gf180mcu_fd_sc_mcu7t5v0__inv_1
*I *4025:ZN O *D gf180mcu_fd_sc_mcu7t5v0__inv_1
*CAP
1 *4026:I 0.000186022
2 *4025:ZN 0.000186022
3 *4026:I *4027:I 4.26315e-06
4 *4026:I *4070:I 1.75856e-05
5 *4026:I *4071:I 6.05076e-05
6 *4025:I *4026:I 7.10994e-05
*RES
1 *4025:ZN *4026:I 10.444 
*END

*D_NET *880 0.00124486
*CONN
*I *4027:I I *D gf180mcu_fd_sc_mcu7t5v0__inv_1
*I *4026:ZN O *D gf180mcu_fd_sc_mcu7t5v0__inv_1
*CAP
1 *4027:I 0.000439397
2 *4026:ZN 0.000439397
3 *4027:I *4029:I 0.00027095
4 *4027:I *4031:I 7.53241e-05
5 *4027:I *4032:I 0
6 *4025:I *4027:I 1.55277e-05
7 *4026:I *4027:I 4.26315e-06
*RES
1 *4026:ZN *4027:I 11.964 
*END

*D_NET *881 0.000526187
*CONN
*I *4028:I I *D gf180mcu_fd_sc_mcu7t5v0__inv_1
*I *4027:ZN O *D gf180mcu_fd_sc_mcu7t5v0__inv_1
*CAP
1 *4028:I 0.000255113
2 *4027:ZN 0.000255113
3 *4028:I *4030:I 1.5961e-05
*RES
1 *4027:ZN *4028:I 19.216 
*END

*D_NET *882 0.00125993
*CONN
*I *4029:I I *D gf180mcu_fd_sc_mcu7t5v0__inv_1
*I *4028:ZN O *D gf180mcu_fd_sc_mcu7t5v0__inv_1
*CAP
1 *4029:I 0.000257801
2 *4028:ZN 0.000257801
3 *4029:I *4030:I 0.000317503
4 *4029:I *4034:I 9.37296e-06
5 *4025:I *4029:I 0.000146503
6 *4027:I *4029:I 0.00027095
*RES
1 *4028:ZN *4029:I 11.964 
*END

*D_NET *883 0.000859286
*CONN
*I *4030:I I *D gf180mcu_fd_sc_mcu7t5v0__inv_1
*I *4029:ZN O *D gf180mcu_fd_sc_mcu7t5v0__inv_1
*CAP
1 *4030:I 0.000245521
2 *4029:ZN 0.000245521
3 *4030:I *4034:I 3.47803e-05
4 *4028:I *4030:I 1.5961e-05
5 *4029:I *4030:I 0.000317503
*RES
1 *4029:ZN *4030:I 19.976 
*END

*D_NET *884 0.000444322
*CONN
*I *4031:I I *D gf180mcu_fd_sc_mcu7t5v0__inv_1
*I *4030:ZN O *D gf180mcu_fd_sc_mcu7t5v0__inv_1
*CAP
1 *4031:I 0.000113568
2 *4030:ZN 0.000113568
3 *4031:I *4032:I 0.000141863
4 *4031:I *4036:I 0
5 *4027:I *4031:I 7.53241e-05
*RES
1 *4030:ZN *4031:I 10.064 
*END

*D_NET *885 0.000648878
*CONN
*I *4032:I I *D gf180mcu_fd_sc_mcu7t5v0__inv_1
*I *4031:ZN O *D gf180mcu_fd_sc_mcu7t5v0__inv_1
*CAP
1 *4032:I 0.000253508
2 *4031:ZN 0.000253508
3 *4032:I *4036:I 0
4 *4027:I *4032:I 0
5 *4031:I *4032:I 0.000141863
*RES
1 *4031:ZN *4032:I 10.672 
*END

*D_NET *886 0.000487167
*CONN
*I *4033:I I *D gf180mcu_fd_sc_mcu7t5v0__inv_1
*I *4032:ZN O *D gf180mcu_fd_sc_mcu7t5v0__inv_1
*CAP
1 *4033:I 0.000202622
2 *4032:ZN 0.000202622
3 *4033:I *4034:I 1.01183e-05
4 *4033:I *4037:I 7.18046e-05
*RES
1 *4032:ZN *4033:I 10.368 
*END

*D_NET *887 0.000610454
*CONN
*I *4034:I I *D gf180mcu_fd_sc_mcu7t5v0__inv_1
*I *4033:ZN O *D gf180mcu_fd_sc_mcu7t5v0__inv_1
*CAP
1 *4034:I 0.000278091
2 *4033:ZN 0.000278091
3 *4029:I *4034:I 9.37296e-06
4 *4030:I *4034:I 3.47803e-05
5 *4033:I *4034:I 1.01183e-05
*RES
1 *4033:ZN *4034:I 19.672 
*END

*D_NET *888 0.00047931
*CONN
*I *4035:I I *D gf180mcu_fd_sc_mcu7t5v0__inv_1
*I *4024:ZN O *D gf180mcu_fd_sc_mcu7t5v0__inv_1
*CAP
1 *4035:I 0.000186379
2 *4024:ZN 0.000186379
3 *4035:I *4046:I 1.28529e-05
4 *3425:D *4035:I 3.87828e-05
5 *3425:CLK *4035:I 8.09693e-06
6 *4024:I *4035:I 4.6818e-05
*RES
1 *4024:ZN *4035:I 10.368 
*END

*D_NET *889 0.000153083
*CONN
*I *4036:I I *D gf180mcu_fd_sc_mcu7t5v0__inv_1
*I *4034:ZN O *D gf180mcu_fd_sc_mcu7t5v0__inv_1
*CAP
1 *4036:I 7.65413e-05
2 *4034:ZN 7.65413e-05
3 *4031:I *4036:I 0
4 *4032:I *4036:I 0
*RES
1 *4034:ZN *4036:I 9.532 
*END

*D_NET *890 0.00061667
*CONN
*I *4037:I I *D gf180mcu_fd_sc_mcu7t5v0__inv_1
*I *4036:ZN O *D gf180mcu_fd_sc_mcu7t5v0__inv_1
*CAP
1 *4037:I 0.000251409
2 *4036:ZN 0.000251409
3 *4037:I *4038:I 4.20481e-05
4 *4033:I *4037:I 7.18046e-05
*RES
1 *4036:ZN *4037:I 10.596 
*END

*D_NET *891 0.000200316
*CONN
*I *4038:I I *D gf180mcu_fd_sc_mcu7t5v0__inv_1
*I *4037:ZN O *D gf180mcu_fd_sc_mcu7t5v0__inv_1
*CAP
1 *4038:I 7.91338e-05
2 *4037:ZN 7.91338e-05
3 *4038:I *4042:I 0
4 *4037:I *4038:I 4.20481e-05
*RES
1 *4037:ZN *4038:I 9.532 
*END

*D_NET *892 0.000841748
*CONN
*I *4039:I I *D gf180mcu_fd_sc_mcu7t5v0__inv_1
*I *4038:ZN O *D gf180mcu_fd_sc_mcu7t5v0__inv_1
*CAP
1 *4039:I 0.00033079
2 *4038:ZN 0.00033079
3 *4039:I *4040:I 6.83013e-05
4 *4039:I *4041:I 0.000111867
*RES
1 *4038:ZN *4039:I 20.128 
*END

*D_NET *893 0.000845777
*CONN
*I *4040:I I *D gf180mcu_fd_sc_mcu7t5v0__inv_1
*I *4039:ZN O *D gf180mcu_fd_sc_mcu7t5v0__inv_1
*CAP
1 *4040:I 0.000382546
2 *4039:ZN 0.000382546
3 *4040:I *4041:I 5.14116e-06
4 *4040:I *4042:I 7.24161e-06
5 *4040:I *4045:I 0
6 *4040:I *4047:I 0
7 *4039:I *4040:I 6.83013e-05
*RES
1 *4039:ZN *4040:I 11.736 
*END

*D_NET *894 0.000625154
*CONN
*I *4041:I I *D gf180mcu_fd_sc_mcu7t5v0__inv_1
*I *4040:ZN O *D gf180mcu_fd_sc_mcu7t5v0__inv_1
*CAP
1 *4041:I 0.000250787
2 *4040:ZN 0.000250787
3 *4041:I *4043:I 6.57222e-06
4 *4039:I *4041:I 0.000111867
5 *4040:I *4041:I 5.14116e-06
*RES
1 *4040:ZN *4041:I 19.672 
*END

*D_NET *895 0.00018
*CONN
*I *4042:I I *D gf180mcu_fd_sc_mcu7t5v0__inv_1
*I *4041:ZN O *D gf180mcu_fd_sc_mcu7t5v0__inv_1
*CAP
1 *4042:I 8.6379e-05
2 *4041:ZN 8.6379e-05
3 *4038:I *4042:I 0
4 *4040:I *4042:I 7.24161e-06
*RES
1 *4041:ZN *4042:I 9.532 
*END

*D_NET *896 0.000196317
*CONN
*I *4043:I I *D gf180mcu_fd_sc_mcu7t5v0__inv_1
*I *4042:ZN O *D gf180mcu_fd_sc_mcu7t5v0__inv_1
*CAP
1 *4043:I 9.48724e-05
2 *4042:ZN 9.48724e-05
3 *4041:I *4043:I 6.57222e-06
*RES
1 *4042:ZN *4043:I 18.532 
*END

*D_NET *897 0.000153083
*CONN
*I *4044:I I *D gf180mcu_fd_sc_mcu7t5v0__inv_1
*I *4043:ZN O *D gf180mcu_fd_sc_mcu7t5v0__inv_1
*CAP
1 *4044:I 7.65413e-05
2 *4043:ZN 7.65413e-05
*RES
1 *4043:ZN *4044:I 9.532 
*END

*D_NET *898 0.000515895
*CONN
*I *4045:I I *D gf180mcu_fd_sc_mcu7t5v0__inv_1
*I *4044:ZN O *D gf180mcu_fd_sc_mcu7t5v0__inv_1
*CAP
1 *4045:I 0.000142924
2 *4044:ZN 0.000142924
3 *4045:I *4047:I 0.00020108
4 *4045:I *4048:I 2.89664e-05
5 *4040:I *4045:I 0
*RES
1 *4044:ZN *4045:I 10.216 
*END

*D_NET *899 0.000154087
*CONN
*I *4046:I I *D gf180mcu_fd_sc_mcu7t5v0__inv_1
*I *4035:ZN O *D gf180mcu_fd_sc_mcu7t5v0__inv_1
*CAP
1 *4046:I 7.06172e-05
2 *4035:ZN 7.06172e-05
3 *4035:I *4046:I 1.28529e-05
*RES
1 *4035:ZN *4046:I 9.532 
*END

*D_NET *900 0.00042487
*CONN
*I *4047:I I *D gf180mcu_fd_sc_mcu7t5v0__inv_1
*I *4045:ZN O *D gf180mcu_fd_sc_mcu7t5v0__inv_1
*CAP
1 *4047:I 7.00078e-05
2 *4045:ZN 7.00078e-05
3 *4047:I *4048:I 5.48085e-05
4 *4047:I *4049:I 2.89664e-05
5 *4040:I *4047:I 0
6 *4045:I *4047:I 0.00020108
*RES
1 *4045:ZN *4047:I 9.836 
*END

*D_NET *901 0.000623761
*CONN
*I *4048:I I *D gf180mcu_fd_sc_mcu7t5v0__inv_1
*I *4047:ZN O *D gf180mcu_fd_sc_mcu7t5v0__inv_1
*CAP
1 *4048:I 0.000152088
2 *4047:ZN 0.000152088
3 *4048:I *4049:I 0.00020108
4 *4048:I *4050:I 3.47302e-05
5 *4045:I *4048:I 2.89664e-05
6 *4047:I *4048:I 5.48085e-05
*RES
1 *4047:ZN *4048:I 10.596 
*END

*D_NET *902 0.000420437
*CONN
*I *4049:I I *D gf180mcu_fd_sc_mcu7t5v0__inv_1
*I *4048:ZN O *D gf180mcu_fd_sc_mcu7t5v0__inv_1
*CAP
1 *4049:I 5.33078e-05
2 *4048:ZN 5.33078e-05
3 *4049:I *4050:I 5.48085e-05
4 *4049:I *4051:I 2.89664e-05
5 *4047:I *4049:I 2.89664e-05
6 *4048:I *4049:I 0.00020108
*RES
1 *4048:ZN *4049:I 9.836 
*END

*D_NET *903 0.000618578
*CONN
*I *4050:I I *D gf180mcu_fd_sc_mcu7t5v0__inv_1
*I *4049:ZN O *D gf180mcu_fd_sc_mcu7t5v0__inv_1
*CAP
1 *4050:I 0.00016398
2 *4049:ZN 0.00016398
3 *4050:I *4051:I 0.00020108
4 *4050:I *4052:I 0
5 *4048:I *4050:I 3.47302e-05
6 *4049:I *4050:I 5.48085e-05
*RES
1 *4049:ZN *4050:I 10.596 
*END

*D_NET *904 0.000414914
*CONN
*I *4051:I I *D gf180mcu_fd_sc_mcu7t5v0__inv_1
*I *4050:ZN O *D gf180mcu_fd_sc_mcu7t5v0__inv_1
*CAP
1 *4051:I 5.85591e-05
2 *4050:ZN 5.85591e-05
3 *4051:I *4053:I 6.77492e-05
4 *4049:I *4051:I 2.89664e-05
5 *4050:I *4051:I 0.00020108
*RES
1 *4050:ZN *4051:I 9.836 
*END

*D_NET *905 0.000645453
*CONN
*I *4052:I I *D gf180mcu_fd_sc_mcu7t5v0__inv_1
*I *4051:ZN O *D gf180mcu_fd_sc_mcu7t5v0__inv_1
*CAP
1 *4052:I 0.000281813
2 *4051:ZN 0.000281813
3 *4052:I *4053:I 8.18282e-05
4 *4050:I *4052:I 0
*RES
1 *4051:ZN *4052:I 19.672 
*END

*D_NET *906 0.000395304
*CONN
*I *4053:I I *D gf180mcu_fd_sc_mcu7t5v0__inv_1
*I *4052:ZN O *D gf180mcu_fd_sc_mcu7t5v0__inv_1
*CAP
1 *4053:I 0.000119981
2 *4052:ZN 0.000119981
3 *4053:I *4054:I 5.76373e-06
4 *4051:I *4053:I 6.77492e-05
5 *4052:I *4053:I 8.18282e-05
*RES
1 *4052:ZN *4053:I 10.064 
*END

*D_NET *907 0.000153749
*CONN
*I *4054:I I *D gf180mcu_fd_sc_mcu7t5v0__inv_1
*I *4053:ZN O *D gf180mcu_fd_sc_mcu7t5v0__inv_1
*CAP
1 *4054:I 7.39927e-05
2 *4053:ZN 7.39927e-05
3 *4053:I *4054:I 5.76373e-06
*RES
1 *4053:ZN *4054:I 9.532 
*END

*D_NET *908 0.000153083
*CONN
*I *4055:I I *D gf180mcu_fd_sc_mcu7t5v0__inv_1
*I *4054:ZN O *D gf180mcu_fd_sc_mcu7t5v0__inv_1
*CAP
1 *4055:I 7.65413e-05
2 *4054:ZN 7.65413e-05
*RES
1 *4054:ZN *4055:I 9.532 
*END

*D_NET *909 0.000153083
*CONN
*I *4056:I I *D gf180mcu_fd_sc_mcu7t5v0__inv_1
*I *4055:ZN O *D gf180mcu_fd_sc_mcu7t5v0__inv_1
*CAP
1 *4056:I 7.65413e-05
2 *4055:ZN 7.65413e-05
*RES
1 *4055:ZN *4056:I 9.532 
*END

*D_NET *910 0.000153083
*CONN
*I *4057:I I *D gf180mcu_fd_sc_mcu7t5v0__inv_1
*I *4046:ZN O *D gf180mcu_fd_sc_mcu7t5v0__inv_1
*CAP
1 *4057:I 7.65413e-05
2 *4046:ZN 7.65413e-05
*RES
1 *4046:ZN *4057:I 9.532 
*END

*D_NET *911 0.000254867
*CONN
*I *4058:I I *D gf180mcu_fd_sc_mcu7t5v0__inv_1
*I *4056:ZN O *D gf180mcu_fd_sc_mcu7t5v0__inv_1
*CAP
1 *4058:I 0.000127434
2 *4056:ZN 0.000127434
*RES
1 *4056:ZN *4058:I 18.836 
*END

*D_NET *912 0.000196821
*CONN
*I *4059:I I *D gf180mcu_fd_sc_mcu7t5v0__inv_1
*I *4058:ZN O *D gf180mcu_fd_sc_mcu7t5v0__inv_1
*CAP
1 *4059:I 9.84103e-05
2 *4058:ZN 9.84103e-05
*RES
1 *4058:ZN *4059:I 9.684 
*END

*D_NET *913 0.000153083
*CONN
*I *4060:I I *D gf180mcu_fd_sc_mcu7t5v0__inv_1
*I *4059:ZN O *D gf180mcu_fd_sc_mcu7t5v0__inv_1
*CAP
1 *4060:I 7.65413e-05
2 *4059:ZN 7.65413e-05
*RES
1 *4059:ZN *4060:I 9.532 
*END

*D_NET *914 0.000444348
*CONN
*I *4061:I I *D gf180mcu_fd_sc_mcu7t5v0__inv_1
*I *4060:ZN O *D gf180mcu_fd_sc_mcu7t5v0__inv_1
*CAP
1 *4061:I 0.000222174
2 *4060:ZN 0.000222174
*RES
1 *4060:ZN *4061:I 10.368 
*END

*D_NET *915 0.000153083
*CONN
*I *4062:I I *D gf180mcu_fd_sc_mcu7t5v0__inv_1
*I *4061:ZN O *D gf180mcu_fd_sc_mcu7t5v0__inv_1
*CAP
1 *4062:I 7.65413e-05
2 *4061:ZN 7.65413e-05
*RES
1 *4061:ZN *4062:I 9.532 
*END

*D_NET *916 0.000153083
*CONN
*I *4063:I I *D gf180mcu_fd_sc_mcu7t5v0__inv_1
*I *4062:ZN O *D gf180mcu_fd_sc_mcu7t5v0__inv_1
*CAP
1 *4063:I 7.65413e-05
2 *4062:ZN 7.65413e-05
*RES
1 *4062:ZN *4063:I 9.532 
*END

*D_NET *917 0.000153083
*CONN
*I *4064:I I *D gf180mcu_fd_sc_mcu7t5v0__inv_1
*I *4063:ZN O *D gf180mcu_fd_sc_mcu7t5v0__inv_1
*CAP
1 *4064:I 7.65413e-05
2 *4063:ZN 7.65413e-05
*RES
1 *4063:ZN *4064:I 9.532 
*END

*D_NET *918 0.000153083
*CONN
*I *4065:I I *D gf180mcu_fd_sc_mcu7t5v0__inv_1
*I *4064:ZN O *D gf180mcu_fd_sc_mcu7t5v0__inv_1
*CAP
1 *4065:I 7.65413e-05
2 *4064:ZN 7.65413e-05
*RES
1 *4064:ZN *4065:I 9.532 
*END

*D_NET *919 0.000750619
*CONN
*I *3173:A1 I *D gf180mcu_fd_sc_mcu7t5v0__xor2_1
*I *3528:I I *D gf180mcu_fd_sc_mcu7t5v0__buf_1
*I *4065:ZN O *D gf180mcu_fd_sc_mcu7t5v0__inv_1
*CAP
1 *3173:A1 4.82904e-05
2 *3528:I 9.75304e-05
3 *4065:ZN 0.000161294
4 *919:6 0.000307115
5 *3173:A2 *3173:A1 3.07734e-05
6 *3173:A2 *3528:I 4.60244e-05
7 *3424:D *3173:A1 0
8 *3424:D *919:6 3.07734e-05
9 *877:8 *919:6 2.88187e-05
*RES
1 *4065:ZN *919:6 5.792 
2 *919:6 *3528:I 5.184 
3 *919:6 *3173:A1 4.956 
*END

*D_NET *920 0.000153083
*CONN
*I *4066:I I *D gf180mcu_fd_sc_mcu7t5v0__inv_1
*I *4057:ZN O *D gf180mcu_fd_sc_mcu7t5v0__inv_1
*CAP
1 *4066:I 7.65413e-05
2 *4057:ZN 7.65413e-05
*RES
1 *4057:ZN *4066:I 9.532 
*END

*D_NET *921 0.000234647
*CONN
*I *4067:I I *D gf180mcu_fd_sc_mcu7t5v0__inv_1
*I *4066:ZN O *D gf180mcu_fd_sc_mcu7t5v0__inv_1
*CAP
1 *4067:I 6.47711e-05
2 *4066:ZN 6.47711e-05
3 *4067:I *4068:I 0.000105105
*RES
1 *4066:ZN *4067:I 9.684 
*END

*D_NET *922 0.000528142
*CONN
*I *4068:I I *D gf180mcu_fd_sc_mcu7t5v0__inv_1
*I *4067:ZN O *D gf180mcu_fd_sc_mcu7t5v0__inv_1
*CAP
1 *4068:I 0.000140421
2 *4067:ZN 0.000140421
3 *4068:I *4069:I 0.000142194
4 *4067:I *4068:I 0.000105105
*RES
1 *4067:ZN *4068:I 10.216 
*END

*D_NET *923 0.000942015
*CONN
*I *4069:I I *D gf180mcu_fd_sc_mcu7t5v0__inv_1
*I *4068:ZN O *D gf180mcu_fd_sc_mcu7t5v0__inv_1
*CAP
1 *4069:I 0.000329314
2 *4068:ZN 0.000329314
3 *4069:I *4071:I 0.000141194
4 *4025:I *4069:I 0
5 *4068:I *4069:I 0.000142194
*RES
1 *4068:ZN *4069:I 20.052 
*END

*D_NET *924 0.000240252
*CONN
*I *4070:I I *D gf180mcu_fd_sc_mcu7t5v0__inv_1
*I *4069:ZN O *D gf180mcu_fd_sc_mcu7t5v0__inv_1
*CAP
1 *4070:I 5.87807e-05
2 *4069:ZN 5.87807e-05
3 *4070:I *4071:I 0.000105105
4 *4026:I *4070:I 1.75856e-05
*RES
1 *4069:ZN *4070:I 9.684 
*END

*D_NET *925 0.000568104
*CONN
*I *4071:I I *D gf180mcu_fd_sc_mcu7t5v0__inv_1
*I *4070:ZN O *D gf180mcu_fd_sc_mcu7t5v0__inv_1
*CAP
1 *4071:I 0.000130649
2 *4070:ZN 0.000130649
3 *4026:I *4071:I 6.05076e-05
4 *4069:I *4071:I 0.000141194
5 *4070:I *4071:I 0.000105105
*RES
1 *4070:ZN *4071:I 10.444 
*END

*D_NET *928 0.00848602
*CONN
*I *3263:B2 I *D gf180mcu_fd_sc_mcu7t5v0__aoi22_1
*I *3272:I0 I *D gf180mcu_fd_sc_mcu7t5v0__mux2_2
*I *3354:I1 I *D gf180mcu_fd_sc_mcu7t5v0__mux2_2
*I *3463:Q O *D gf180mcu_fd_sc_mcu7t5v0__dffrnq_1
*CAP
1 *3263:B2 0.000232919
2 *3272:I0 0.00119445
3 *3354:I1 3.60458e-05
4 *3463:Q 3.33146e-05
5 *928:12 0.00171656
6 *928:8 0.000752293
7 *3263:B2 *931:12 0.000124593
8 *3272:I0 *3265:B2 6.47993e-06
9 *3272:I0 *934:29 0.00180453
10 *3354:I1 *934:29 0.000193933
11 *928:12 *931:12 0.000101246
12 *928:12 *935:10 0
13 *928:12 *935:14 0
14 *3256:A2 *3272:I0 0
15 *3342:B *928:8 0
16 *3463:D *3272:I0 4.10312e-05
17 *3463:D *3354:I1 5.48085e-05
18 *3463:RN *928:12 0.000411809
19 *3502:RN *3272:I0 9.02044e-05
20 *3542:I *3272:I0 3.47749e-05
21 *3570:I *3263:B2 0.000344204
22 *240:29 *3272:I0 0
23 *241:19 *3263:B2 6.00599e-05
24 *283:43 *3272:I0 3.62623e-05
25 *326:16 *3272:I0 1.34616e-05
26 *326:90 *3263:B2 7.54771e-06
27 *329:42 *3263:B2 5.30492e-05
28 *329:42 *928:8 2.22758e-05
29 *333:18 *3272:I0 0
30 *337:12 *3263:B2 0.000374234
31 *341:44 *3272:I0 0.000623556
32 *421:22 *3272:I0 5.92609e-05
33 *427:40 *3272:I0 6.31119e-05
*RES
1 *3463:Q *928:8 9.228 
2 *928:8 *928:12 8.68 
3 *928:12 *3354:I1 5.032 
4 *928:12 *3272:I0 22.924 
5 *928:8 *3263:B2 12.496 
*END

*D_NET *929 0.00570726
*CONN
*I *3355:I1 I *D gf180mcu_fd_sc_mcu7t5v0__mux2_2
*I *3273:I0 I *D gf180mcu_fd_sc_mcu7t5v0__mux2_2
*I *3265:B2 I *D gf180mcu_fd_sc_mcu7t5v0__aoi22_1
*I *3464:Q O *D gf180mcu_fd_sc_mcu7t5v0__dffrnq_1
*CAP
1 *3355:I1 0
2 *3273:I0 0.000413001
3 *3265:B2 0.000413384
4 *3464:Q 0
5 *929:29 0.000836795
6 *929:4 0.000837178
7 *3273:I0 *3355:I0 7.71175e-06
8 *929:29 *932:25 0.000141888
9 *3272:I0 *3265:B2 6.47993e-06
10 *3272:I1 *929:29 1.91917e-06
11 *3273:I1 *3273:I0 0
12 *3351:S *929:29 0.000399191
13 *3442:CLKN *3265:B2 0.000239048
14 *3502:RN *3265:B2 0
15 *3502:RN *929:29 5.52837e-05
16 *3534:I *3265:B2 0.000357692
17 *3534:I *929:29 0
18 *330:42 *3265:B2 0.000937057
19 *333:18 *3265:B2 0.000389489
20 *333:18 *929:29 0
21 *343:174 *929:29 0.000226744
22 *379:10 *3273:I0 1.28529e-05
23 *427:23 *3265:B2 0.000317503
24 *427:40 *3265:B2 0.000114041
*RES
1 *3464:Q *929:4 4.5 
2 *929:4 *3265:B2 19.58 
3 *929:4 *929:29 12.8 
4 *929:29 *3273:I0 7.084 
5 *929:29 *3355:I1 4.5 
*END

*D_NET *930 0.00477926
*CONN
*I *3251:A2 I *D gf180mcu_fd_sc_mcu7t5v0__nor2_1
*I *3253:A2 I *D gf180mcu_fd_sc_mcu7t5v0__nor2_1
*I *3252:A2 I *D gf180mcu_fd_sc_mcu7t5v0__and2_1
*I *3332:I1 I *D gf180mcu_fd_sc_mcu7t5v0__mux2_2
*I *3509:Q O *D gf180mcu_fd_sc_mcu7t5v0__dffrnq_1
*CAP
1 *3251:A2 0.000122264
2 *3253:A2 0.000197621
3 *3252:A2 0
4 *3332:I1 0.000167915
5 *3509:Q 0.000345181
6 *930:27 0.000217342
7 *930:25 0.000749351
8 *930:10 0.00112046
9 *930:25 *931:12 0
10 *3139:I *3253:A2 0
11 *3252:A1 *3251:A2 3.00299e-05
12 *3252:A1 *3253:A2 0
13 *3252:A1 *930:27 0
14 *3263:A1 *3253:A2 9.88736e-06
15 *3334:A1 *930:25 0
16 *3452:RN *930:25 0
17 *3510:D *930:25 0.000161819
18 *41:12 *3253:A2 0.00032464
19 *41:12 *930:25 0.000317503
20 *41:12 *930:27 0.000123561
21 *140:19 *3251:A2 1.5015e-05
22 *140:19 *930:25 0
23 *231:16 *930:10 0
24 *232:10 *3332:I1 0
25 *232:10 *930:10 0
26 *239:16 *3253:A2 0
27 *240:10 *3253:A2 6.89687e-05
28 *326:103 *930:10 0.000300836
29 *329:14 *930:10 0.000206029
30 *351:24 *930:10 0.000300836
*RES
1 *3509:Q *930:10 11.888 
2 *930:10 *3332:I1 10.14 
3 *930:10 *930:25 8.604 
4 *930:25 *930:27 0.38 
5 *930:27 *3252:A2 4.5 
6 *930:27 *3253:A2 6.78 
7 *930:25 *3251:A2 5.564 
*END

*D_NET *931 0.00253052
*CONN
*I *3253:A1 I *D gf180mcu_fd_sc_mcu7t5v0__nor2_1
*I *3559:I I *D gf180mcu_fd_sc_mcu7t5v0__dlyc_1
*I *3510:Q O *D gf180mcu_fd_sc_mcu7t5v0__dffrnq_1
*CAP
1 *3253:A1 0.000273474
2 *3559:I 0
3 *3510:Q 0.000335983
4 *931:12 0.000609457
5 *931:12 *935:10 3.13998e-05
6 *3263:B2 *931:12 0.000124593
7 *3452:RN *3253:A1 0.000341281
8 *3452:RN *931:12 0.000379283
9 *41:12 *3253:A1 0
10 *41:12 *931:12 0
11 *240:10 *3253:A1 7.59985e-05
12 *326:90 *931:12 6.31119e-05
13 *329:31 *931:12 0.000194693
14 *928:12 *931:12 0.000101246
15 *930:25 *931:12 0
*RES
1 *3510:Q *931:12 17.3 
2 *931:12 *3559:I 4.5 
3 *931:12 *3253:A1 7.008 
*END

*D_NET *932 0.00724714
*CONN
*I *3336:A1 I *D gf180mcu_fd_sc_mcu7t5v0__nor2_1
*I *3351:I0 I *D gf180mcu_fd_sc_mcu7t5v0__mux2_2
*I *3345:I1 I *D gf180mcu_fd_sc_mcu7t5v0__mux2_2
*I *3455:Q O *D gf180mcu_fd_sc_mcu7t5v0__dffrnq_1
*CAP
1 *3336:A1 0.000328075
2 *3351:I0 0
3 *3345:I1 0.000323303
4 *3455:Q 3.28034e-05
5 *932:25 0.00195175
6 *932:6 0.00197979
7 *3336:A1 *3351:I1 0
8 *3345:I1 *3349:I0 0.000766611
9 *932:25 *3351:I1 0
10 *3272:I1 *3336:A1 0
11 *3272:I1 *932:25 2.57058e-06
12 *3336:A2 *3336:A1 1.5015e-05
13 *3337:B *3336:A1 0.000154451
14 *3349:S *3345:I1 0.000158809
15 *3351:S *932:25 0.000156311
16 *3437:D *932:25 5.91493e-05
17 *3437:CLK *932:25 0.000183465
18 *3450:D *932:25 0
19 *3456:RN *3345:I1 4.89423e-05
20 *3459:RN *3345:I1 5.48455e-05
21 *3460:D *3336:A1 0
22 *3460:SETN *3336:A1 8.67574e-05
23 *3502:D *932:25 4.52262e-05
24 *3502:CLK *932:25 0.000126898
25 *3503:RN *932:25 0.000298996
26 *335:14 *3345:I1 4.61098e-05
27 *335:14 *932:25 2.98504e-05
28 *343:61 *932:25 2.9965e-05
29 *343:170 *932:25 0.00011703
30 *343:668 *932:25 0.000108532
31 *929:29 *932:25 0.000141888
*RES
1 *3455:Q *932:6 4.728 
2 *932:6 *3345:I1 16.844 
3 *932:6 *932:25 12.084 
4 *932:25 *3351:I0 4.5 
5 *932:25 *3336:A1 6.704 
*END

*D_NET *933 0.00591214
*CONN
*I *3338:I0 I *D gf180mcu_fd_sc_mcu7t5v0__mux2_2
*I *3352:I0 I *D gf180mcu_fd_sc_mcu7t5v0__mux2_2
*I *3346:I1 I *D gf180mcu_fd_sc_mcu7t5v0__mux2_2
*I *3456:Q O *D gf180mcu_fd_sc_mcu7t5v0__dffrnq_1
*CAP
1 *3338:I0 0.000545296
2 *3352:I0 0.000631068
3 *3346:I1 0.000722805
4 *3456:Q 0
5 *933:21 0.00180375
6 *933:4 0.00135019
7 *3338:I0 *937:12 0
8 *3346:I1 *3346:I0 9.34379e-05
9 *3346:I1 *3428:D 0
10 *3346:I1 *959:10 0.000183443
11 *3350:A2 *3338:I0 7.45328e-07
12 *3352:I1 *3352:I0 0
13 *3450:CLK *3352:I0 0
14 *3456:RN *3346:I1 0
15 *3456:RN *933:21 0
16 *3457:D *933:21 8.73421e-05
17 *330:42 *3338:I0 9.88736e-06
18 *335:8 *3352:I0 0
19 *335:14 *3352:I0 0
20 *343:29 *933:21 0.000148623
21 *343:42 *3338:I0 0.00011748
22 *343:42 *933:21 8.02751e-06
23 *343:46 *3352:I0 0
24 *343:72 *3352:I0 0
25 *427:23 *3338:I0 0.000210044
*RES
1 *3456:Q *933:4 4.5 
2 *933:4 *3346:I1 18.668 
3 *933:4 *933:21 4.104 
4 *933:21 *3352:I0 17.68 
5 *933:21 *3338:I0 8.3 
*END

*D_NET *934 0.0117706
*CONN
*I *3353:I0 I *D gf180mcu_fd_sc_mcu7t5v0__mux2_2
*I *3339:A1 I *D gf180mcu_fd_sc_mcu7t5v0__nor2_1
*I *3347:I1 I *D gf180mcu_fd_sc_mcu7t5v0__mux2_2
*I *3457:Q O *D gf180mcu_fd_sc_mcu7t5v0__dffrnq_1
*CAP
1 *3353:I0 0
2 *3339:A1 0.000111744
3 *3347:I1 0.000218364
4 *3457:Q 0.000154186
5 *934:29 0.0011466
6 *934:12 0.00140741
7 *934:29 *3137:I 0.000131642
8 *934:29 *3348:I1 1.34037e-05
9 *934:29 *3354:I0 9.76221e-06
10 *3258:A1 *934:29 5.49382e-05
11 *3272:I0 *934:29 0.00180453
12 *3340:B *3339:A1 0.000317503
13 *3347:S *3347:I1 6.57222e-05
14 *3353:S *934:29 0.00219473
15 *3354:I1 *934:29 0.000193933
16 *3354:S *934:29 0.0013089
17 *3457:RN *934:12 0.000317494
18 *3458:D *934:12 3.42838e-05
19 *3458:D *934:29 4.63109e-05
20 *3462:CLK *3339:A1 0.000211844
21 *3462:CLK *934:29 0.000777537
22 *3509:CLK *934:12 0.000143649
23 *232:12 *3347:I1 6.69567e-05
24 *283:43 *934:29 6.08394e-05
25 *326:38 *934:12 1.53727e-05
26 *326:38 *934:29 0.000125038
27 *335:8 *3347:I1 7.63078e-05
28 *343:23 *3347:I1 3.35674e-05
29 *343:23 *934:12 5.40492e-05
30 *343:29 *3347:I1 0.00047849
31 *417:27 *3339:A1 8.24076e-05
32 *417:27 *934:29 0.000113118
*RES
1 *3457:Q *934:12 15.324 
2 *934:12 *3347:I1 16.312 
3 *934:12 *934:29 14.82 
4 *934:29 *3339:A1 6.248 
5 *934:29 *3353:I0 4.5 
*END

*D_NET *935 0.00235566
*CONN
*I *3341:A1 I *D gf180mcu_fd_sc_mcu7t5v0__nor2_1
*I *3354:I0 I *D gf180mcu_fd_sc_mcu7t5v0__mux2_2
*I *3348:I1 I *D gf180mcu_fd_sc_mcu7t5v0__mux2_2
*I *3458:Q O *D gf180mcu_fd_sc_mcu7t5v0__dffrnq_1
*CAP
1 *3341:A1 8.18355e-05
2 *3354:I0 8.53892e-05
3 *3348:I1 9.18442e-05
4 *3458:Q 0.000432687
5 *935:14 0.000373138
6 *935:10 0.000710426
7 *3348:I1 *3348:I0 0
8 *3354:S *3354:I0 5.76373e-06
9 *232:10 *935:10 0.000262181
10 *232:10 *935:14 0.000113344
11 *232:12 *935:14 0.000138445
12 *329:31 *935:10 6.04444e-06
13 *343:12 *935:10 0
14 *928:12 *935:10 0
15 *928:12 *935:14 0
16 *931:12 *935:10 3.13998e-05
17 *934:29 *3348:I1 1.34037e-05
18 *934:29 *3354:I0 9.76221e-06
*RES
1 *3458:Q *935:10 12.192 
2 *935:10 *935:14 6.248 
3 *935:14 *3348:I1 5.032 
4 *935:14 *3354:I0 5.032 
5 *935:10 *3341:A1 9.38 
*END

*D_NET *936 0.00723891
*CONN
*I *3355:I0 I *D gf180mcu_fd_sc_mcu7t5v0__mux2_2
*I *3343:I0 I *D gf180mcu_fd_sc_mcu7t5v0__mux2_2
*I *3349:I1 I *D gf180mcu_fd_sc_mcu7t5v0__mux2_2
*I *3459:Q O *D gf180mcu_fd_sc_mcu7t5v0__dffrnq_1
*CAP
1 *3355:I0 0.000327939
2 *3343:I0 0.000238384
3 *3349:I1 4.23199e-05
4 *3459:Q 0.000373344
5 *936:25 0.00147796
6 *936:10 0.0013273
7 *936:10 *3345:I0 8.85263e-05
8 *936:10 *3349:I0 0.000596614
9 *936:25 *3349:I0 1.44832e-05
10 *3273:I0 *3355:I0 7.71175e-06
11 *3343:I1 *3343:I0 4.58467e-05
12 *3343:S *3343:I0 6.56531e-05
13 *3343:S *3355:I0 6.7303e-05
14 *3349:S *936:10 2.2499e-05
15 *3349:S *936:25 3.07734e-05
16 *3351:S *3355:I0 0
17 *3352:I1 *936:25 0
18 *3352:S *3355:I0 8.55327e-05
19 *3355:S *3355:I0 5.4634e-05
20 *3420:RN *936:25 0
21 *3455:D *3349:I1 3.4631e-05
22 *3455:D *936:10 4.2691e-05
23 *3455:D *936:25 0.000141897
24 *3456:CLK *3349:I1 4.60055e-05
25 *3456:CLK *936:10 0.000105155
26 *3459:RN *936:10 0
27 *3461:D *936:25 4.71416e-05
28 *3464:D *3343:I0 8.8425e-05
29 *3464:D *3355:I0 0.000279004
30 *3541:I *936:25 0.000224296
31 *325:21 *936:25 0
32 *325:23 *936:25 0
33 *333:31 *3355:I0 0.000346011
34 *343:174 *3355:I0 4.5136e-05
35 *379:10 *3343:I0 0.000215438
36 *625:14 *936:25 0.000756259
*RES
1 *3459:Q *936:10 12.648 
2 *936:10 *3349:I1 9.532 
3 *936:10 *936:25 16.676 
4 *936:25 *3343:I0 11.204 
5 *936:25 *3355:I0 12.344 
*END

*D_NET *937 0.00191552
*CONN
*I *3335:A1 I *D gf180mcu_fd_sc_mcu7t5v0__nand2_1
*I *3350:A1 I *D gf180mcu_fd_sc_mcu7t5v0__nand2_1
*I *3437:Q O *D gf180mcu_fd_sc_mcu7t5v0__dffrnq_1
*CAP
1 *3335:A1 3.82914e-05
2 *3350:A1 0
3 *3437:Q 0.000582467
4 *937:12 0.000620758
5 *3338:I0 *937:12 0
6 *3350:A2 *3335:A1 7.83779e-05
7 *3567:I *937:12 0
8 *240:52 *937:12 0
9 *333:18 *3335:A1 0.000189843
10 *333:18 *937:12 0.000222592
11 *337:29 *3335:A1 0.000147534
12 *343:42 *937:12 3.56519e-05
13 *421:6 *937:12 0
*RES
1 *3437:Q *937:12 8.3 
2 *937:12 *3350:A1 4.5 
3 *937:12 *3335:A1 5.184 
*END

*D_NET *938 0.00363099
*CONN
*I *3254:B2 I *D gf180mcu_fd_sc_mcu7t5v0__aoi222_1
*I *3351:I1 I *D gf180mcu_fd_sc_mcu7t5v0__mux2_2
*I *3460:Q O *D gf180mcu_fd_sc_mcu7t5v0__dffsnq_1
*CAP
1 *3254:B2 0.000196421
2 *3351:I1 0.000587694
3 *3460:Q 4.62603e-05
4 *938:8 0.000830376
5 *3150:A1 *3254:B2 1.23828e-05
6 *3254:B1 *3254:B2 0.000725294
7 *3254:C1 *3254:B2 0.000725294
8 *3254:C1 *938:8 8.18373e-05
9 *3254:C2 *3254:B2 6.00599e-05
10 *3265:A1 *3351:I1 0
11 *3336:A1 *3351:I1 0
12 *3351:S *3351:I1 7.24161e-06
13 *3442:D *3254:B2 8.62306e-05
14 *3442:D *3351:I1 1.5961e-05
15 *3460:D *3351:I1 1.02578e-05
16 *3460:SETN *3351:I1 0.000163844
17 *3460:CLK *3351:I1 0
18 *330:42 *938:8 8.18373e-05
19 *417:8 *3254:B2 0
20 *417:8 *3351:I1 0
21 *932:25 *3351:I1 0
*RES
1 *3460:Q *938:8 9.532 
2 *938:8 *3351:I1 13.256 
3 *938:8 *3254:B2 12.496 
*END

*D_NET *939 0.0102033
*CONN
*I *3331:A1 I *D gf180mcu_fd_sc_mcu7t5v0__or2_1
*I *3254:A1 I *D gf180mcu_fd_sc_mcu7t5v0__aoi222_1
*I *3507:Q O *D gf180mcu_fd_sc_mcu7t5v0__dffrnq_1
*CAP
1 *3331:A1 0.000118646
2 *3254:A1 0.00102854
3 *3507:Q 0.000769388
4 *939:10 0.00191657
5 *3169:A1 *3254:A1 0.000806946
6 *3254:A2 *3254:A1 0.000109362
7 *3260:A2 *3254:A1 0.000722482
8 *3268:A1 *3254:A1 0.000353949
9 *3331:A2 *939:10 0
10 *3505:D *3254:A1 0.00145624
11 *239:27 *3254:A1 1.95906e-05
12 *251:8 *3254:A1 0.000276717
13 *328:97 *3331:A1 0.000355531
14 *328:103 *3254:A1 0.000718147
15 *328:103 *3331:A1 0.000147313
16 *329:72 *3254:A1 0.000609738
17 *329:72 *939:10 0
18 *329:85 *939:10 0
19 *417:27 *3254:A1 0.00015919
20 *419:14 *3254:A1 0.000634991
*RES
1 *3507:Q *939:10 18.744 
2 *939:10 *3254:A1 28.472 
3 *939:10 *3331:A1 5.792 
*END

*D_NET *940 0.000481701
*CONN
*I *3256:A1 I *D gf180mcu_fd_sc_mcu7t5v0__nand2_1
*I *3502:Q O *D gf180mcu_fd_sc_mcu7t5v0__dffrnq_1
*CAP
1 *3256:A1 0.000103421
2 *3502:Q 0.000103421
3 *3256:A2 *3256:A1 0.00023197
4 *3258:B1 *3256:A1 2.40898e-05
5 *421:22 *3256:A1 1.88006e-05
*RES
1 *3502:Q *3256:A1 10.14 
*END

*D_NET *941 0.00384041
*CONN
*I *3259:A1 I *D gf180mcu_fd_sc_mcu7t5v0__nand2_1
*I *3503:Q O *D gf180mcu_fd_sc_mcu7t5v0__dffrnq_1
*CAP
1 *3259:A1 0.000551331
2 *3503:Q 0.000551331
3 *3265:A1 *3259:A1 0.000866233
4 *3266:B2 *3259:A1 0.000128601
5 *3273:S *3259:A1 0.000104694
6 *3411:I *3259:A1 0.00100244
7 *3442:CLKN *3259:A1 0.000296244
8 *238:69 *3259:A1 0.000156567
9 *238:73 *3259:A1 1.94858e-05
10 *240:65 *3259:A1 0.000163491
*RES
1 *3503:Q *3259:A1 25.068 
*END

*D_NET *942 0.00343976
*CONN
*I *3262:A1 I *D gf180mcu_fd_sc_mcu7t5v0__aoi21_1
*I *3504:Q O *D gf180mcu_fd_sc_mcu7t5v0__dffrnq_1
*CAP
1 *3262:A1 0.000760012
2 *3504:Q 0.000760012
3 *3169:A1 *3262:A1 0.000141629
4 *3451:D *3262:A1 8.0332e-05
5 *3451:RN *3262:A1 0.000176424
6 *3505:D *3262:A1 0.000298454
7 *144:33 *3262:A1 0.000166501
8 *329:55 *3262:A1 9.17202e-06
9 *329:168 *3262:A1 6.99958e-05
10 *329:294 *3262:A1 6.21666e-05
11 *418:23 *3262:A1 0.000433917
12 *422:12 *3262:A1 0.00048115
*RES
1 *3504:Q *3262:A1 25.752 
*END

*D_NET *943 0.000411941
*CONN
*I *3267:A1 I *D gf180mcu_fd_sc_mcu7t5v0__nand2_1
*I *3505:Q O *D gf180mcu_fd_sc_mcu7t5v0__dffrnq_1
*CAP
1 *3267:A1 0.000194441
2 *3505:Q 0.000194441
3 *3267:A1 *3270:A1 2.30587e-05
4 *3169:A1 *3267:A1 0
*RES
1 *3505:Q *3267:A1 10.368 
*END

*D_NET *944 0.000499976
*CONN
*I *3270:A1 I *D gf180mcu_fd_sc_mcu7t5v0__nand2_1
*I *3506:Q O *D gf180mcu_fd_sc_mcu7t5v0__dffrnq_1
*CAP
1 *3270:A1 0.000238459
2 *3506:Q 0.000238459
3 *3267:A1 *3270:A1 2.30587e-05
*RES
1 *3506:Q *3270:A1 10.52 
*END

*D_NET *945 0.00612332
*CONN
*I *3175:A2 I *D gf180mcu_fd_sc_mcu7t5v0__and3_1
*I *3248:A2 I *D gf180mcu_fd_sc_mcu7t5v0__oai31_1
*I *3120:I I *D gf180mcu_fd_sc_mcu7t5v0__clkinv_1
*I *3174:A2 I *D gf180mcu_fd_sc_mcu7t5v0__xor2_1
*I *3176:A2 I *D gf180mcu_fd_sc_mcu7t5v0__aoi21_1
*I *3438:Q O *D gf180mcu_fd_sc_mcu7t5v0__dffrnq_1
*CAP
1 *3175:A2 7.69415e-05
2 *3248:A2 3.28034e-05
3 *3120:I 0
4 *3174:A2 7.69415e-05
5 *3176:A2 0.000167872
6 *3438:Q 6.72013e-05
7 *945:18 0.000714219
8 *945:12 0.000782987
9 *945:6 0.000336645
10 *3175:A2 *3175:A1 0.000340241
11 *3175:A2 *3175:A3 3.19219e-05
12 *3176:A2 *3176:A1 8.22324e-05
13 *945:12 *3248:A3 0.000943715
14 *945:12 *946:16 0
15 *945:18 *3141:I 0.000424388
16 *945:18 *3174:A1 1.3758e-05
17 *945:18 *3176:A1 1.52691e-05
18 *945:18 *3248:A3 0.000521672
19 *945:18 *946:22 0.000189518
20 *945:18 *947:21 0
21 *945:18 *947:38 0
22 *3135:I *3176:A2 0
23 *3249:I *945:6 3.87828e-05
24 *3249:I *945:12 1.52768e-05
25 *3252:A1 *3175:A2 0
26 *3438:D *945:18 0.000340241
27 *42:8 *945:18 0.000317618
28 *238:10 *945:18 0
29 *239:16 *3176:A2 0
30 *239:16 *945:18 0
31 *341:24 *945:18 0
32 *342:49 *945:18 0.000547949
33 *342:53 *945:18 9.50296e-06
34 *342:106 *945:6 2.40898e-05
35 *342:106 *945:12 1.15312e-05
*RES
1 *3438:Q *945:6 5.032 
2 *945:6 *945:12 7.236 
3 *945:12 *945:18 10.58 
4 *945:18 *3176:A2 5.716 
5 *945:18 *3174:A2 4.5 
6 *945:12 *3120:I 9 
7 *945:6 *3248:A2 4.728 
8 *3174:A2 *3175:A2 18.988 
*END

*D_NET *946 0.0072655
*CONN
*I *3248:A1 I *D gf180mcu_fd_sc_mcu7t5v0__oai31_1
*I *3250:A1 I *D gf180mcu_fd_sc_mcu7t5v0__or3_1
*I *3176:A1 I *D gf180mcu_fd_sc_mcu7t5v0__aoi21_1
*I *3175:A1 I *D gf180mcu_fd_sc_mcu7t5v0__and3_1
*I *3174:A1 I *D gf180mcu_fd_sc_mcu7t5v0__xor2_1
*I *3439:Q O *D gf180mcu_fd_sc_mcu7t5v0__dffrnq_1
*CAP
1 *3248:A1 0.000203784
2 *3250:A1 0.000159456
3 *3176:A1 0.00024892
4 *3175:A1 2.53481e-05
5 *3174:A1 4.27758e-05
6 *3439:Q 0.000295876
7 *946:31 0.000274268
8 *946:22 0.000479932
9 *946:16 0.000994697
10 *946:12 0.000897746
11 *3175:A1 *3175:A3 0.000460427
12 *3176:A1 *3175:A3 0.000163658
13 *3176:A1 *3176:B 0.000128363
14 *946:12 *947:12 0
15 *946:16 *3248:A3 0
16 *946:22 *3141:I 3.96513e-05
17 *946:22 *3248:A3 0
18 *3175:A2 *3175:A1 0.000340241
19 *3176:A2 *3176:A1 8.22324e-05
20 *3414:I *946:22 0.000268332
21 *3439:D *3176:A1 8.8425e-05
22 *3445:RN *946:22 8.45062e-05
23 *239:16 *3174:A1 5.75752e-06
24 *239:16 *946:22 5.48313e-05
25 *341:20 *3250:A1 0.000119866
26 *342:34 *946:16 0.00088247
27 *342:34 *946:22 0.000705391
28 *342:106 *3248:A1 0
29 *945:12 *946:16 0
30 *945:18 *3174:A1 1.3758e-05
31 *945:18 *3176:A1 1.52691e-05
32 *945:18 *946:22 0.000189518
*RES
1 *3439:Q *946:12 15.172 
2 *946:12 *946:16 8.376 
3 *946:16 *946:22 8.908 
4 *946:22 *3174:A1 4.728 
5 *946:22 *946:31 4.5 
6 *946:31 *3175:A1 10.14 
7 *946:31 *3176:A1 11.508 
8 *946:16 *3250:A1 10.14 
9 *946:12 *3248:A1 5.64 
*END

*D_NET *947 0.00799383
*CONN
*I *3250:A3 I *D gf180mcu_fd_sc_mcu7t5v0__or3_1
*I *3248:A3 I *D gf180mcu_fd_sc_mcu7t5v0__oai31_1
*I *3175:A3 I *D gf180mcu_fd_sc_mcu7t5v0__and3_1
*I *3176:B I *D gf180mcu_fd_sc_mcu7t5v0__aoi21_1
*I *3440:Q O *D gf180mcu_fd_sc_mcu7t5v0__dffrnq_1
*CAP
1 *3250:A3 0
2 *3248:A3 0.000292592
3 *3175:A3 0.000277333
4 *3176:B 7.60321e-05
5 *3440:Q 0.000776518
6 *947:38 0.000655431
7 *947:21 0.000690709
8 *947:12 0.000903088
9 *3175:A1 *3175:A3 0.000460427
10 *3175:A2 *3175:A3 3.19219e-05
11 *3176:A1 *3175:A3 0.000163658
12 *3176:A1 *3176:B 0.000128363
13 *3252:A1 *3175:A3 0
14 *3409:I *947:12 8.7332e-05
15 *3439:D *3175:A3 0.000278996
16 *3439:D *947:12 0.000460436
17 *3440:CLK *3176:B 0.000179609
18 *239:16 *3175:A3 1.52691e-05
19 *240:83 *3175:A3 8.55327e-05
20 *341:13 *3176:B 2.23385e-05
21 *341:13 *947:21 4.94368e-05
22 *341:13 *947:38 0.000141897
23 *341:20 *947:38 0.000368747
24 *342:12 *947:12 0.000350409
25 *342:49 *947:38 3.23683e-05
26 *945:12 *3248:A3 0.000943715
27 *945:18 *3248:A3 0.000521672
28 *945:18 *947:21 0
29 *945:18 *947:38 0
30 *946:12 *947:12 0
31 *946:16 *3248:A3 0
32 *946:22 *3248:A3 0
*RES
1 *3440:Q *947:12 19.732 
2 *947:12 *3176:B 5.64 
3 *947:12 *947:21 0.38 
4 *947:21 *3175:A3 16.692 
5 *947:21 *947:38 3.192 
6 *947:38 *3248:A3 17.072 
7 *947:38 *3250:A3 4.5 
*END

*D_NET *948 0.0022009
*CONN
*I *3545:I I *D gf180mcu_fd_sc_mcu7t5v0__dlyc_1
*I *3434:Q O *D gf180mcu_fd_sc_mcu7t5v0__dffrnq_1
*CAP
1 *3545:I 0.000776158
2 *3434:Q 0.000776158
3 *3545:I *3333:A1 7.77758e-05
4 *3177:A2 *3545:I 2.57058e-06
5 *3441:D *3545:I 0.000128363
6 *3441:CLK *3545:I 0
7 *232:10 *3545:I 0
8 *326:103 *3545:I 0
9 *329:10 *3545:I 0.000379274
10 *329:129 *3545:I 1.94446e-05
11 *351:16 *3545:I 4.116e-05
*RES
1 *3434:Q *3545:I 14.472 
*END

*D_NET *949 0.00602856
*CONN
*I *3240:A1 I *D gf180mcu_fd_sc_mcu7t5v0__nand3_1
*I *3239:A1 I *D gf180mcu_fd_sc_mcu7t5v0__nand2_1
*I *3547:I I *D gf180mcu_fd_sc_mcu7t5v0__dlyc_1
*I *3435:Q O *D gf180mcu_fd_sc_mcu7t5v0__dffrnq_1
*CAP
1 *3240:A1 0
2 *3239:A1 0
3 *3547:I 0.000553844
4 *3435:Q 0.000205808
5 *949:22 0.000854329
6 *949:12 0.000506294
7 *949:12 *3333:A1 4.03461e-05
8 *949:22 *3240:A3 0.000200919
9 *3239:A2 *949:22 0.000894676
10 *3240:A2 *949:22 0.000525983
11 *3433:RN *3547:I 0.00033338
12 *3436:D *949:22 1.76797e-05
13 *3436:RN *949:22 0.000443978
14 *3436:CLK *949:12 0.000152762
15 *3436:CLK *949:22 1.00209e-05
16 *231:10 *949:22 0.00041745
17 *232:10 *949:12 0.000422999
18 *326:103 *949:12 0.000397671
19 *326:114 *949:22 1.31022e-05
20 *340:27 *949:22 3.73134e-05
*RES
1 *3435:Q *949:12 7.388 
2 *949:12 *949:22 14.7 
3 *949:22 *3547:I 17.452 
4 *949:22 *3239:A1 4.5 
5 *949:12 *3240:A1 4.5 
*END

*D_NET *950 0.000274346
*CONN
*I *3134:I I *D gf180mcu_fd_sc_mcu7t5v0__clkinv_1
*I *3436:Q O *D gf180mcu_fd_sc_mcu7t5v0__dffrnq_1
*CAP
1 *3134:I 9.17508e-05
2 *3436:Q 9.17508e-05
3 *139:8 *3134:I 9.08447e-05
*RES
1 *3436:Q *3134:I 18.836 
*END

*D_NET *951 0.000435071
*CONN
*I *3137:I I *D gf180mcu_fd_sc_mcu7t5v0__clkinv_1
*I *3442:Q O *D gf180mcu_fd_sc_mcu7t5v0__dffnrnq_1
*CAP
1 *3137:I 0.000125368
2 *3442:Q 0.000125368
3 *283:43 *3137:I 5.26936e-05
4 *934:29 *3137:I 0.000131642
*RES
1 *3442:Q *3137:I 10.064 
*END

*D_NET *952 0.00096906
*CONN
*I *3138:I I *D gf180mcu_fd_sc_mcu7t5v0__clkinv_1
*I *3443:Q O *D gf180mcu_fd_sc_mcu7t5v0__dffnrnq_1
*CAP
1 *3138:I 0.000230858
2 *3443:Q 0.000230858
3 *3260:B1 *3138:I 0.000336512
4 *3443:RN *3138:I 0
5 *3444:D *3138:I 7.57767e-05
6 *3444:CLKN *3138:I 9.50539e-05
*RES
1 *3443:Q *3138:I 11.432 
*END

*D_NET *953 0.000525994
*CONN
*I *3140:I I *D gf180mcu_fd_sc_mcu7t5v0__clkinv_1
*I *3444:Q O *D gf180mcu_fd_sc_mcu7t5v0__dffnrnq_1
*CAP
1 *3140:I 0.000239142
2 *3444:Q 0.000239142
3 *3445:D *3140:I 2.87815e-05
4 *238:33 *3140:I 8.00051e-06
5 *240:83 *3140:I 1.09283e-05
*RES
1 *3444:Q *3140:I 10.292 
*END

*D_NET *954 0.00183385
*CONN
*I *3141:I I *D gf180mcu_fd_sc_mcu7t5v0__clkinv_1
*I *3445:Q O *D gf180mcu_fd_sc_mcu7t5v0__dffnrnq_1
*CAP
1 *3141:I 0.000383562
2 *3445:Q 0.000383562
3 *3414:I *3141:I 0
4 *3445:RN *3141:I 1.15275e-05
5 *239:16 *3141:I 0.000511345
6 *240:83 *3141:I 7.98085e-05
7 *342:53 *3141:I 0
8 *945:18 *3141:I 0.000424388
9 *946:22 *3141:I 3.96513e-05
*RES
1 *3445:Q *3141:I 21.572 
*END

*D_NET *955 0.00044783
*CONN
*I *3142:I I *D gf180mcu_fd_sc_mcu7t5v0__clkinv_1
*I *3446:Q O *D gf180mcu_fd_sc_mcu7t5v0__dffnrnq_1
*CAP
1 *3142:I 0.000104686
2 *3446:Q 0.000104686
3 *3446:RN *3142:I 2.88187e-05
4 *3447:CLKN *3142:I 0.000209639
*RES
1 *3446:Q *3142:I 10.14 
*END

*D_NET *956 0.000634333
*CONN
*I *3143:I I *D gf180mcu_fd_sc_mcu7t5v0__clkinv_1
*I *3447:Q O *D gf180mcu_fd_sc_mcu7t5v0__dffnrnq_1
*CAP
1 *3143:I 0.000154846
2 *3447:Q 0.000154846
3 *4072:I *3143:I 0.00032464
*RES
1 *3447:Q *3143:I 10.368 
*END

*D_NET *957 0.00100083
*CONN
*I *3248:B I *D gf180mcu_fd_sc_mcu7t5v0__oai31_1
*I *3448:Q O *D gf180mcu_fd_sc_mcu7t5v0__dffnrnq_1
*CAP
1 *3248:B 0.000269543
2 *3448:Q 0.000269543
3 *3249:I *3248:B 7.53241e-05
4 *3579:I *3248:B 0.000386421
*RES
1 *3448:Q *3248:B 11.28 
*END

*D_NET *958 0.00349685
*CONN
*I *3345:I0 I *D gf180mcu_fd_sc_mcu7t5v0__mux2_2
*I *3427:D I *D gf180mcu_fd_sc_mcu7t5v0__dffrnq_1
*I *3426:Q O *D gf180mcu_fd_sc_mcu7t5v0__dffrnq_1
*CAP
1 *3345:I0 0.000717137
2 *3427:D 0
3 *3426:Q 0.000390395
4 *958:12 0.00110753
5 *3346:S *3345:I0 0.000209302
6 *3426:RN *958:12 2.11395e-05
7 *3427:CLK *3345:I0 5.76063e-06
8 *3427:CLK *958:12 1.02578e-05
9 *3428:CLK *3345:I0 0
10 *3456:D *3345:I0 0.000725285
11 *3459:RN *3345:I0 9.2805e-05
12 *3819:I *958:12 5.54886e-05
13 *3821:I *958:12 1.38099e-05
14 *3823:I *958:12 0
15 *335:14 *3345:I0 5.94067e-05
16 *936:10 *3345:I0 8.85263e-05
*RES
1 *3426:Q *958:12 7.084 
2 *958:12 *3427:D 4.5 
3 *958:12 *3345:I0 10.276 
*END

*D_NET *959 0.00204839
*CONN
*I *3428:D I *D gf180mcu_fd_sc_mcu7t5v0__dffrnq_1
*I *3346:I0 I *D gf180mcu_fd_sc_mcu7t5v0__mux2_2
*I *3427:Q O *D gf180mcu_fd_sc_mcu7t5v0__dffrnq_1
*CAP
1 *3428:D 0.000212381
2 *3346:I0 6.68956e-05
3 *3427:Q 0.00038
4 *959:10 0.000659276
5 *3346:I1 *3346:I0 9.34379e-05
6 *3346:I1 *3428:D 0
7 *3346:I1 *959:10 0.000183443
8 *3400:I *959:10 2.77542e-05
9 *3426:RN *959:10 0.00020108
10 *3427:RN *959:10 5.48085e-05
11 *3428:CLK *3428:D 3.51062e-05
12 *340:73 *959:10 0.000134206
*RES
1 *3427:Q *959:10 12.496 
2 *959:10 *3346:I0 9.684 
3 *959:10 *3428:D 10.292 
*END

*D_NET *960 0.00162271
*CONN
*I *3347:I0 I *D gf180mcu_fd_sc_mcu7t5v0__mux2_2
*I *3429:D I *D gf180mcu_fd_sc_mcu7t5v0__dffrnq_1
*I *3428:Q O *D gf180mcu_fd_sc_mcu7t5v0__dffrnq_1
*CAP
1 *3347:I0 0.000549257
2 *3429:D 0.000193443
3 *3428:Q 0
4 *960:4 0.0007427
5 *3429:CLK *3429:D 2.6126e-05
6 *326:42 *3347:I0 7.57844e-05
7 *340:67 *3429:D 3.54047e-05
*RES
1 *3428:Q *960:4 4.5 
2 *960:4 *3429:D 14.868 
3 *960:4 *3347:I0 7.844 
*END

*D_NET *961 0.00403868
*CONN
*I *3348:I0 I *D gf180mcu_fd_sc_mcu7t5v0__mux2_2
*I *3430:D I *D gf180mcu_fd_sc_mcu7t5v0__dffrnq_1
*I *3429:Q O *D gf180mcu_fd_sc_mcu7t5v0__dffrnq_1
*CAP
1 *3348:I0 0.000858159
2 *3430:D 0.000165174
3 *3429:Q 0.000195017
4 *961:14 0.00121835
5 *3348:I0 *3349:I0 0
6 *961:14 *962:12 2.28663e-05
7 *3348:I1 *3348:I0 0
8 *3402:I *3348:I0 0
9 *3429:RN *3348:I0 0
10 *3429:CLK *3430:D 0
11 *3430:RN *961:14 0.000109488
12 *3431:CLK *3348:I0 0.000316029
13 *3458:D *3348:I0 0
14 *3458:RN *3348:I0 0
15 *340:61 *3430:D 0.000125642
16 *340:61 *961:14 0.000162158
17 *340:67 *3348:I0 0
18 *340:67 *3430:D 0.000222378
19 *343:12 *3348:I0 0
20 *351:28 *961:14 0.000331356
21 *351:32 *3430:D 0.000255375
22 *351:32 *961:14 5.66861e-05
23 *351:40 *3430:D 0
*RES
1 *3429:Q *961:14 11.736 
2 *961:14 *3430:D 11.128 
3 *961:14 *3348:I0 14.244 
*END

*D_NET *962 0.00847056
*CONN
*I *3349:I0 I *D gf180mcu_fd_sc_mcu7t5v0__mux2_2
*I *3431:D I *D gf180mcu_fd_sc_mcu7t5v0__dffrnq_1
*I *3430:Q O *D gf180mcu_fd_sc_mcu7t5v0__dffrnq_1
*CAP
1 *3349:I0 0.00123807
2 *3431:D 0
3 *3430:Q 0.00055781
4 *962:12 0.00179588
5 *3345:I1 *3349:I0 0.000766611
6 *3346:S *3349:I0 0.000142065
7 *3348:I0 *3349:I0 0
8 *3349:S *3349:I0 0.00033375
9 *3430:RN *962:12 3.2823e-06
10 *3431:CLK *3349:I0 5.76373e-06
11 *3456:D *3349:I0 2.56676e-05
12 *3456:RN *3349:I0 5.70302e-05
13 *3457:CLK *3349:I0 0.00140209
14 *3509:CLK *3349:I0 0.00150857
15 *3509:CLK *962:12 0
16 *340:61 *962:12 0
17 *936:10 *3349:I0 0.000596614
18 *936:25 *3349:I0 1.44832e-05
19 *961:14 *962:12 2.28663e-05
*RES
1 *3430:Q *962:12 16.844 
2 *962:12 *3431:D 4.5 
3 *962:12 *3349:I0 27.712 
*END

*D_NET *963 0.00204939
*CONN
*I *3332:I0 I *D gf180mcu_fd_sc_mcu7t5v0__mux2_2
*I *3432:D I *D gf180mcu_fd_sc_mcu7t5v0__dffrnq_1
*I *3431:Q O *D gf180mcu_fd_sc_mcu7t5v0__dffrnq_1
*CAP
1 *3332:I0 0.000341838
2 *3432:D 0.000626548
3 *3431:Q 0
4 *963:4 0.000968386
5 *3332:S *3332:I0 3.08902e-05
6 *3431:RN *3432:D 0
7 *3432:CLK *3432:D 0
8 *3922:I *3432:D 0
9 *231:16 *3332:I0 8.17271e-05
10 *340:57 *3432:D 0
*RES
1 *3431:Q *963:4 4.5 
2 *963:4 *3432:D 8.148 
3 *963:4 *3332:I0 6.856 
*END

*D_NET *964 0.00180497
*CONN
*I *3333:A1 I *D gf180mcu_fd_sc_mcu7t5v0__nor2_1
*I *3433:D I *D gf180mcu_fd_sc_mcu7t5v0__dffrnq_1
*I *3432:Q O *D gf180mcu_fd_sc_mcu7t5v0__dffrnq_1
*CAP
1 *3333:A1 0.000544508
2 *3433:D 0
3 *3432:Q 0.000179615
4 *964:8 0.000724123
5 *3240:A2 *3333:A1 0.000185193
6 *3406:I *964:8 0
7 *3432:RN *964:8 0
8 *3436:CLK *3333:A1 0
9 *3545:I *3333:A1 7.77758e-05
10 *232:10 *3333:A1 5.34053e-05
11 *329:129 *3333:A1 0
12 *351:24 *3333:A1 0
13 *949:12 *3333:A1 4.03461e-05
*RES
1 *3432:Q *964:8 5.564 
2 *964:8 *3433:D 4.5 
3 *964:8 *3333:A1 8.3 
*END

*D_NET *965 0.00249574
*CONN
*I *3240:A3 I *D gf180mcu_fd_sc_mcu7t5v0__nand3_1
*I *3433:Q O *D gf180mcu_fd_sc_mcu7t5v0__dffrnq_1
*CAP
1 *3240:A3 0.000538139
2 *3433:Q 0.000538139
3 *3434:CLK *3240:A3 2.65777e-05
4 *3436:RN *3240:A3 0.00069853
5 *139:8 *3240:A3 0.000121345
6 *326:114 *3240:A3 0.000372089
7 *340:27 *3240:A3 0
8 *949:22 *3240:A3 0.000200919
*RES
1 *3433:Q *3240:A3 23.776 
*END

*D_NET *966 0.00161914
*CONN
*I *3434:D I *D gf180mcu_fd_sc_mcu7t5v0__dffrnq_1
*I *3441:Q O *D gf180mcu_fd_sc_mcu7t5v0__dffrnq_1
*CAP
1 *3434:D 0.00068353
2 *3441:Q 0.00068353
3 *3409:I *3434:D 1.44832e-05
4 *3410:I *3434:D 6.39906e-05
5 *3434:CLK *3434:D 4.19077e-05
6 *3435:D *3434:D 2.9965e-05
7 *3435:CLK *3434:D 0.000101731
*RES
1 *3441:Q *3434:D 13.712 
*END
